28
Lattice="4.836140013069489 0.007941638077690926 0.005976102630424255 0.01710573901102654 10.448763327698213 0.0033930805029534134 0.007530701056500924 0.0019854025753100685 6.144524123911409" Properties=species:S:1:pos:R:3:spacegroup_kinds:I:1:energies:R:1:forces:R:3 spacegroup="P n m a" unit_cell=conventional occupancy="_JSON {\"0\": {\"Mg\": 1}, \"1\": {\"Mg\": 1}, \"2\": {\"Si\": 1}, \"3\": {\"O\": 1}, \"4\": {\"O\": 1}, \"5\": {\"O\": 1}}" free_energy=-197.8297576904297 energy=-197.8297576904297 stress="0.0025938330218195915 -0.000405370257794857 -0.0002748975530266762 -0.000405370257794857 7.910638487373944e-06 -5.41214867553208e-05 -0.0002748975530266762 -5.41214867553208e-05 0.0007936202455312014" pbc="T T T"
Mg       0.00425080      -0.01738781       0.00083149        0      -4.11000538       0.00294967      -0.00249233       0.00034524
Mg       2.42119202       5.24825935       0.00202926        0      -4.04943848       0.00196006       0.00101493       0.00005822
Mg       0.00758875      -0.01583145       3.07399597        0      -4.10290909       0.00182037      -0.00343616      -0.00048795
Fe       2.42673142       5.25933863       3.07447049        0      -6.73846436       0.00162656       0.00372268       0.00012580
Fe       0.09884731       2.90791012       4.60895813        1      -6.83678865      -0.00650771       0.00094650       0.00081724
Mg       4.80122766       7.56170294       1.54184568        1      -4.37199259       0.00566772      -0.00575542      -0.00057939
Fe       2.50562320       2.30711704       1.53282543        1      -6.89475441      -0.00398372       0.00085153      -0.00037941
Fe       2.34588679       8.15876040       4.61967235        1      -6.97275066       0.00288481      -0.00268243      -0.00089940
Si       0.36277017       4.25508482       1.51679425        2      -8.14041710      -0.00241199      -0.00070427       0.00256766
Si       4.47862698       6.24581960       4.63557519        2      -8.19887352       0.00766622       0.00325003      -0.00298504
Si       2.79378201       0.96357109       4.61365909        2      -8.19324493      -0.01513930      -0.00192514      -0.00137558
Si       2.08035593       9.47189799       1.54305860        2      -8.21812820      -0.02228168      -0.00520324       0.00177621
O        1.16157867       0.88637452       4.61094659        3      -7.68036270       0.00108987      -0.00376616       0.00035858
O        3.71302899       9.49804359       1.54448900        3      -7.74183226       0.01945427       0.00009001      -0.00012699
O        3.56133716       4.29611457       1.50845188        3      -7.57678795      -0.00356659       0.00478158       0.00134386
O        1.28278535       6.17987363       4.64363867        3      -7.58029032       0.00164372      -0.00017086      -0.00067118
O        1.32215047       0.52342376       1.53782842        4      -7.60430956       0.00726869      -0.00411754       0.00137851
O        3.56019887       9.91388542       4.61844175        4      -7.61387205      -0.00182287      -0.00453781      -0.00091572
O        3.77710235       4.72761172       4.64887842        4      -7.48282719       0.00307207       0.00364132      -0.00306675
O        1.04623332       5.78169639       1.50829897        4      -7.58525610       0.00050461       0.00010362       0.00192787
O        1.03747604       3.51598855       2.83446869        5      -7.38830566       0.00039387       0.00354069       0.00175890
O        3.82795708       6.96804288       3.29575898        5      -7.48717833      -0.00265545       0.00497644       0.00011582
O        3.49244953       1.67225847       3.28865056        5      -7.50384903      -0.00099553       0.00055189      -0.00025577
O        1.36353341       8.74332869       2.84811965        5      -7.58540154       0.00365788       0.00054828      -0.00634336
O        3.78573596       6.93932258       5.97140405        5      -7.59203386       0.00117745       0.00499319      -0.00034851
O        1.08152598       3.55904266       0.19631325        5      -7.49062157      -0.00502544       0.00200377      -0.00013078
O        1.35768159       8.74414190       0.23787430        5      -7.58751297       0.00531616       0.00093639       0.00476348
O        3.49243613       1.66758283       5.94333386        5      -7.50156450      -0.00376368      -0.00116174       0.00122827
