28
Lattice="4.86147533344075 0.003181309606289565 -0.0040841614100790395 0.006851541941660644 10.424793100477023 -0.007769939416509089 -0.005149591579945929 -0.004545839234767604 6.100463601190422" Properties=species:S:1:pos:R:3:spacegroup_kinds:I:1:energies:R:1:forces:R:3 spacegroup="P n m a" unit_cell=conventional occupancy="_JSON {\"0\": {\"Mg\": 1}, \"1\": {\"Mg\": 1}, \"2\": {\"Si\": 1}, \"3\": {\"O\": 1}, \"4\": {\"O\": 1}, \"5\": {\"O\": 1}}" free_energy=-197.97459411621094 energy=-197.97459411621094 stress="0.0007550415466539562 -0.0003534468123689294 0.0004327361530158669 -0.0003534468123689294 -0.0025050390977412462 0.0004191498155705631 0.0004327361530158669 0.0004191498155705631 0.00014606892364099622" pbc="T T T"
Fe       0.00365911       0.02615498       0.01061318        0      -6.70783758      -0.00337795       0.00105964      -0.00220652
Fe       2.42920917       5.19405072      -0.00215708        0      -6.77222919      -0.00094389      -0.00008091      -0.00179996
Fe      -0.00065217       0.02368411       3.04337553        0      -6.70774364      -0.00396662       0.00152382       0.00303649
Mg       2.42761230       5.19623170       3.04287488        0      -4.11922598      -0.00035128       0.00002231      -0.00156052
Mg       0.04114981       2.91464523       4.56574706        1      -4.39874125      -0.00540709       0.00403182      -0.00205804
Mg       4.82761873       7.50663388       1.52023283        1      -4.33863640       0.00380632      -0.00704730       0.00044395
Mg       2.48718638       2.34475637       1.53417092        1      -4.37379313      -0.00471114      -0.01364760      -0.00205598
Fe       2.35393207       8.08260394       4.55990572        1      -6.86014652       0.00024997       0.00525126      -0.00015083
Si       0.35676830       4.22722355       1.53312493        2      -8.26145267      -0.00501692      -0.01493843      -0.00338111
Si       4.49096321       6.17567668       4.54960402        2      -8.23797989       0.01278201       0.00537251       0.00553978
Si       2.78311911       1.04230567       4.57691428        2      -8.18385124      -0.00838413      -0.00235446      -0.00074131
Si       2.09500909       9.42157337       1.51647271        2      -8.12124443       0.00548325      -0.00598374      -0.00185872
O        1.13805161       1.04664554       4.57353447        3      -7.59922504       0.00985983      -0.00790185       0.00084354
O        3.73746834       9.39731434       1.51806635        3      -7.57716894      -0.00303432       0.00596525      -0.00054243
O        3.57499533       4.23383345       1.54211967        3      -7.69561005       0.00623235       0.01000572       0.00359035
O        1.27057323       6.10913075       4.54052521        3      -7.60398293      -0.00809091      -0.00642880      -0.00163213
O        1.46826879       0.54351600       1.52879521        4      -7.45592165      -0.00415242      -0.00115809       0.00041941
O        3.43677409       9.93493154       4.56516470        4      -7.37327814       0.00081167       0.00563576       0.00112134
O        3.79583906       4.65403573       4.53486104        4      -7.58590031       0.01120476      -0.01468365       0.00238285
O        1.04467531       5.75101256       1.54720163        4      -7.57766008      -0.00968011       0.01699632      -0.00296613
O        1.08140812       3.51335866       2.84029527        5      -7.68336391      -0.00236305      -0.00015200      -0.00132595
O        3.79180494       6.87414263       3.22057189        5      -7.60569048       0.00069499       0.00139661      -0.00025138
O        3.48991252       1.77034878       3.26899851        5      -7.57247543       0.00312383       0.00938940       0.00125022
O        1.36777736       8.68158159       2.80537539        5      -7.46753550       0.00222716      -0.00209607       0.00126922
O        3.83099588       6.89184181       5.88801114        5      -7.48635721      -0.00233455      -0.00101272      -0.00427629
O        1.04194370       3.49470630       0.21570833        5      -7.57273006       0.00006017       0.00348397       0.00419679
O        1.37269266       8.68673222       0.22347921        5      -7.46590948       0.00322907      -0.00176662      -0.00169062
O        3.48254873       1.76589938       5.88833638        5      -7.56888676       0.00204894       0.00911804       0.00440404
