28
Lattice="4.84821108937022 -0.0032482495492543806 5.487911613148092e-05 -0.007006124627216375 10.446336272569292 -0.0001971342512976177 6.915533323114156e-05 -0.00011538121092713395 6.117371681961808" Properties=species:S:1:pos:R:3:spacegroup_kinds:I:1:energies:R:1:forces:R:3 spacegroup="P n m a" unit_cell=conventional occupancy="_JSON {\"0\": {\"Mg\": 1}, \"1\": {\"Mg\": 1}, \"2\": {\"Si\": 1}, \"3\": {\"O\": 1}, \"4\": {\"O\": 1}, \"5\": {\"O\": 1}}" free_energy=-197.8720703125 energy=-197.8720703125 stress="0.0016569839790463448 0.00025552866281941533 -7.558447578048799e-06 0.00025552866281941533 -0.0025879121385514736 1.4710482901136857e-05 -7.558447578048799e-06 1.4710482901136857e-05 -0.0005048753228038549" pbc="T T T"
Fe       0.00370457      -0.03942397      -0.00841066        0      -6.69832706       0.00110663       0.00134115      -0.00050023
Mg       2.41548075       5.25648814      -0.00074553        0      -4.15493441      -0.00034230      -0.00067232       0.00008184
Fe       0.00339814      -0.03913049       3.06739646        0      -6.69798422       0.00119947       0.00131500       0.00058143
Mg       2.41541433       5.25613301       3.05901627        0      -4.15502405      -0.00036652      -0.00060517      -0.00016453
Fe       0.06140278       2.94116484       4.58829733        1      -6.87002039      -0.00420964       0.00189307      -0.00000937
Mg       4.80415502       7.51715280       1.52937321        1      -4.44121027       0.00357518      -0.00115773      -0.00000601
Fe       2.50007385       2.34215390       1.52925404        1      -6.78159904      -0.00463369      -0.00820445       0.00003292
Mg       2.36434943       8.09520093       4.58793086        1      -4.39010096       0.00351278       0.01113591      -0.00004106
Si       0.35708598       4.29313457       1.52901681        2      -8.22671223       0.01225863       0.02151315       0.00014650
Si       4.47961698       6.21045853       4.58783976        2      -8.28751087      -0.01780125      -0.01781560      -0.00007805
Si       2.77061621       0.98840041       4.58817942        2      -8.05286694      -0.00022331      -0.01493977       0.00000146
Si       2.07114130       9.39381860       1.52928048        2      -8.16914463      -0.00148673       0.01387940       0.00000771
O        1.12840267       0.97276639       4.58838132        3      -7.47759390       0.00027391      -0.00488587       0.00000436
O        3.71453441       9.38229969       1.52913016        3      -7.61289692      -0.00113142       0.00668166       0.00000266
O        3.57127710       4.35849975       1.52918883        3      -7.70048571      -0.01371711      -0.00051629      -0.00004773
O        1.26932629       6.17898685       4.58783971        3      -7.76516151       0.01604366      -0.00299086       0.00002296
O        1.43190816       0.48327177       1.53003045        4      -7.36619186       0.00234517      -0.00726419       0.00007280
O        3.39172916       9.88856389       4.58855507        4      -7.46293354      -0.00103989       0.01170537       0.00000670
O        3.73590379       4.70871956       4.58762416        4      -7.61644506       0.01526016       0.00882765      -0.00004715
O        1.09218338       5.80022226       1.52891069        4      -7.69306660      -0.01063794      -0.01415862      -0.00001967
O        1.06099291       3.58484529       2.84984830        5      -7.51284266      -0.00017723      -0.00238786       0.00115143
O        3.77518357       6.92906793       3.27058598        5      -7.66873932       0.00020780       0.00174511       0.00007193
O        3.46903691       1.70829443       3.27528643        5      -7.36997890       0.00207758       0.00125542      -0.00611304
O        1.37233481       8.66194195       2.83728293        5      -7.57464409      -0.00207126      -0.00311641       0.00395439
O        3.77529489       6.92848610       5.90548820        5      -7.66942596       0.00020033       0.00178264      -0.00007522
O        1.06075449       3.58467833       0.20799295        5      -7.51183701      -0.00015417      -0.00242225      -0.00145091
O        1.37240244       8.66300380       0.22078482        5      -7.57467270      -0.00210491      -0.00309248      -0.00388641
O        3.46885936       1.70944482       5.90062408        5      -7.36972618       0.00203620       0.00115420       0.00630018
