28
Lattice="4.85370050017792 -2.0527603819410542e-10 -0.006190017912163563 -4.2742703294155646e-10 10.41817951201213 -2.5874075119585967e-09 -0.007801541440485863 -1.517971939763392e-09 6.119275805523313" Properties=species:S:1:pos:R:3:spacegroup_kinds:I:1:energies:R:1:forces:R:3 spacegroup="P n m a" unit_cell=conventional occupancy="_JSON {\"0\": {\"Mg\": 1}, \"1\": {\"Mg\": 1}, \"2\": {\"Si\": 1}, \"3\": {\"O\": 1}, \"4\": {\"O\": 1}, \"5\": {\"O\": 1}}" free_energy=-197.88235473632812 energy=-197.88235473632812 stress="0.0010434406576678157 -1.553051021119245e-09 0.000714808062184602 -1.553051021119245e-09 -0.0019540961366146803 -4.767505501490632e-08 0.000714808062184602 -4.767505501490632e-08 -0.0013788493815809488" pbc="T T T"
Mg      -0.01248330      -0.00060033       0.00086285        0      -4.06799889       0.00042426      -0.00288119      -0.00208767
Fe       2.43939951       5.19309139      -0.00744824        0      -6.73993778      -0.00333722      -0.00442941       0.00078932
Fe      -0.01645003      -0.01599846       3.06399117        0      -6.73993826       0.00333788      -0.00442833      -0.00078975
Mg       2.43543271       5.20848942       3.05568002        0      -4.06799889      -0.00042352      -0.00288272       0.00208784
Mg       0.04217943       2.88951535       4.59919295        1      -4.35541391      -0.00266851       0.00971536       0.00162553
Fe       4.76317797       7.51770199       1.51909762        1      -6.91408253       0.00324047      -0.00386234      -0.00068417
Fe       2.51347204       2.30861235       1.53125521        1      -6.91408205      -0.00323938      -0.00386233       0.00068666
Mg       2.37296852       8.09860501       4.57662568        1      -4.35541344       0.00266790       0.00971618      -0.00162684
Si       0.37874220       4.21325812       1.55487098        2      -8.20705509       0.01267195       0.00011804       0.00546331
Si       4.50551351       6.18665886       4.56785019        2      -8.18136501       0.01870761      -0.01919804      -0.00174559
Si       2.76333463       0.97756907       4.60177857        2      -8.18136501      -0.01869556      -0.01919251       0.00173635
Si       2.04420738       9.42234790       1.50167167        2      -8.20705414      -0.01267502       0.00011995      -0.00544576
O        1.12603538       0.98054511       4.61745672        3      -7.67229939      -0.00156689       0.00221060       0.00071754
O        3.68157814       9.49682466       1.48847897        3      -7.58597183       0.02095899       0.00051786      -0.00462455
O        3.59507192       4.28773491       1.56187396        3      -7.58597231      -0.02095973       0.00051816       0.00462259
O        1.28911265       6.18963486       4.55836199        3      -7.67229891       0.00155988       0.00221170      -0.00071561
O        1.33068112       0.51630837       1.49521202        4      -7.48984528       0.00216562      -0.01879358      -0.00298043
O        3.44706308       9.86902502       4.60685888        4      -7.57735157      -0.00051064       0.02275547      -0.00029130
O        3.82178542       4.65993517       4.56276986        4      -7.57735109       0.00050872       0.02275807       0.00029236
O        1.09226826       5.72539807       1.56133085        4      -7.48984528      -0.00216440      -0.01879043       0.00298003
O        1.07253658       3.52117809       2.88986880        5      -7.59467888       0.00363488      -0.00280075      -0.00654048
O        3.76483409       6.90332359       3.27185919        5      -7.59103775      -0.00509129       0.01074087      -0.00773634
O        3.46501951       1.73003730       3.30390084        5      -7.47782230       0.00701113       0.00800340      -0.00877061
O        1.38768660       8.70129931       2.84154829        5      -7.48631477      -0.00553046      -0.00210191      -0.00554140
O        3.80382902       6.93912690       5.86572777        5      -7.47782230      -0.00701481       0.00800924       0.00877852
O        1.03526281       3.49220967       0.21499477        5      -7.48631525       0.00553344      -0.00210703       0.00553288
O        1.35041294       8.73026791       0.16667424        5      -7.59467888      -0.00363696      -0.00280540       0.00653189
O        3.50401434       1.69423383       5.89776946        5      -7.59103775       0.00509135       0.01074107       0.00773548
