28
Lattice="4.8627878991240605 -0.006612934626286327 -0.002562728988706536 -0.014247710894305673 10.410365354082765 -0.011436268354536436 -0.0032298831630282404 -0.006692671120619711 6.101246637837411" Properties=species:S:1:pos:R:3:spacegroup_kinds:I:1:initial_magmoms:R:1:energies:R:1:forces:R:3 spacegroup="P n m a" unit_cell=conventional occupancy="_JSON {\"0\": {\"Mg\": 1}, \"1\": {\"Mg\": 1}, \"2\": {\"Si\": 1}, \"3\": {\"O\": 1}, \"4\": {\"O\": 1}, \"5\": {\"O\": 1}}" free_energy=-197.9660186767578 energy=-197.9660186767578 stress="0.0001863350480562076 0.0007602370460517704 0.0002791832957882434 0.0007602370460517704 -0.002385827712714672 0.0006619987543672323 0.0002791832957882434 0.0006619987543672323 -0.0005671251565217972" pbc="T T T"
Fe       0.00180805      -0.01345837       0.00399174        0       0.50000000      -6.74745941       0.00522221       0.00037199      -0.00302809
Fe       2.42068910       5.23613153       0.00483802        0       0.50000000      -6.73398924       0.00171154       0.00165211       0.00132813
Fe       0.00174935      -0.01332452       3.04467501        0       0.50000000      -6.75033665       0.00552406       0.00037928       0.00298477
Mg       2.41469245       5.21453797       3.04655411        0       0.00000000      -4.09477139       0.00233826       0.00024118      -0.00060748
Fe       0.06487100       2.90052589       4.57292854        1       0.50000000      -6.90476608      -0.00089020      -0.00279301      -0.00051345
Mg       4.80707528       7.50935357       1.51829661        1       0.00000000      -4.40220261      -0.00190904       0.00019234       0.00105306
Mg       2.47663264       2.31098393       1.53246399        1       0.00000000      -4.30168819       0.00072350       0.00039986       0.00161082
Mg       2.36272089       8.08635462       4.55043128        1       0.00000000      -4.36644173      -0.00047185      -0.00337037       0.00002951
Si       0.34571709       4.23227817       1.54025631        2       0.00000000      -8.19679546      -0.00821650       0.02334744      -0.00073098
Si       4.48915828       6.20135492       4.54862868        2       0.00000000      -8.24687004      -0.00065593      -0.01992454       0.00130736
Si       2.79146657       0.98268197       4.57408638        2       0.00000000      -8.15994740      -0.01926583      -0.01020143       0.00123302
Si       2.06613560       9.39258290       1.50868384        2       0.00000000      -8.19683170      -0.00450376       0.01776373      -0.00488870
O        1.14388685       0.93926470       4.57241729        3       0.00000000      -7.49984217       0.01166491       0.00158916       0.00103175
O        3.71267560       9.37804424       1.51178724        3       0.00000000      -7.61712170       0.00387534      -0.00172237      -0.00143506
O        3.56963201       4.22956077       1.55219920        3       0.00000000      -7.66499853       0.00543121      -0.00021617      -0.00382951
O        1.26702745       6.18958547       4.53609861        3       0.00000000      -7.68433666       0.00069866      -0.00321355      -0.00134045
O        1.44871984       0.52626645       1.52398543        4       0.00000000      -7.45355511      -0.00181562      -0.01437050      -0.00054413
O        3.41638778       9.85143933       4.56006561        4       0.00000000      -7.45686579       0.00086818       0.00189092       0.00010466
O        3.78757016       4.68405741       4.53621431        4       0.00000000      -7.49450970      -0.00050585       0.01502439      -0.00034056
O        1.02431154       5.76102241       1.54620058        4       0.00000000      -7.57472849       0.00105742      -0.01297048       0.00245555
O        1.09294193       3.52463335       2.83701854        5       0.00000000      -7.59190369       0.00440150      -0.00576332       0.00789844
O        3.76061052       6.90535490       3.23845522        5       0.00000000      -7.67625523      -0.00475530       0.00806082      -0.00387692
O        3.46550871       1.69819569       3.24634606        5       0.00000000      -7.47533989       0.00333683       0.00609487      -0.00547621
O        1.36277950       8.65823371       2.81274915        5       0.00000000      -7.57937956      -0.00290401      -0.00574196       0.00394523
O        3.80102961       6.92313117       5.87056613        5       0.00000000      -7.57357693      -0.00213180       0.00848920       0.00624342
O        1.05813475       3.49158994       0.24249227        5       0.00000000      -7.47017336      -0.00021504      -0.00750780      -0.00828650
O        1.37044206       8.66207240       0.20045248        5       0.00000000      -7.57615519      -0.00166315      -0.00493576      -0.00464536
O        3.46465904       1.69932231       5.90133654        5       0.00000000      -7.47517872       0.00305036       0.00723397       0.00831801
