28
Lattice="4.7542 0.0 0.0 0.0 10.2048 0.0 0.0 0.0 5.9839" Properties=species:S:1:pos:R:3:spacegroup_kinds:I:1 spacegroup="P n m a" unit_cell=conventional occupancy="_JSON {\"0\": {\"Mg\": 1}, \"1\": {\"Mg\": 1}, \"2\": {\"Si\": 1}, \"3\": {\"O\": 1}, \"4\": {\"O\": 1}, \"5\": {\"O\": 1}}" pbc="T T T"
Fe       0.00000000       0.00000000       0.00000000        0
Fe       2.37710000       5.10240000       0.00000000        0
Fe       0.00000000       0.00000000       2.99195000        0
Mg       2.37710000       5.10240000       2.99195000        0
Fe       0.06988674       2.82468864       4.48792500        1
Mg       4.68431326       7.38011136       1.49597500        1
Mg       2.44698674       2.27771136       1.49597500        1
Mg       2.30721326       7.92708864       4.48792500        1
Si       0.33326942       4.09212480       1.49597500        2
Si       4.42093058       6.11267520       4.48792500        2
Si       2.71036942       1.01027520       4.48792500        2
Si       2.04383058       9.19452480       1.49597500        2
O        1.17000862       0.87148992       4.48792500        3
O        3.58419138       9.33331008       1.49597500        3
O        3.54710862       4.23091008       1.49597500        3
O        1.20709138       5.97388992       4.48792500        3
O        1.33545478       0.49799424       1.49597500        4
O        3.41874522       9.70680576       4.48792500        4
O        3.71255478       4.60440576       4.48792500        4
O        1.04164522       5.60039424       1.49597500        4
O        1.05638324       3.52984032       2.65685160        5
O        3.69781676       6.67495968       3.32704840        5
O        3.43348324       1.57255968       3.32704840        5
O        1.32071676       8.63224032       2.65685160        5
O        3.69781676       6.67495968       5.64880160        5
O        1.05638324       3.52984032       0.33509840        5
O        1.32071676       8.63224032       0.33509840        5
O        3.43348324       1.57255968       5.64880160        5
