
     Program PWSCF v.6.7MaX starts on 27Aug2026 at 22:23:22 

     This program is part of the open-source Quantum ESPRESSO suite
     for quantum simulation of materials; please cite
         "P. Giannozzi et al., J. Phys.:Condens. Matter 21 395502 (2009);
         "P. Giannozzi et al., J. Phys.:Condens. Matter 29 465901 (2017);
          URL http://www.quantum-espresso.org", 
     in publications or presentations arising from this work. More details at
     http://www.quantum-espresso.org/quote

     Parallel version (MPI), running on    14 processors

     MPI processes distributed on     1 nodes
     R & G space division:  proc/nbgrp/npool/nimage =      14
     Reading input from pw.in
Warning: card &FCP ignored
Warning: card / ignored
Warning: card &RISM ignored
Warning: card / ignored

     Current dimensions of program PWSCF are:
     Max number of different atomic species (ntypx) = 10
     Max number of k-points (npk) =  40000
     Max angular momentum in pseudopotentials (lmaxx) =  3
     file Fe.pbe-spn-kjpaw_psl.1.0.0.UPF: wavefunction(s)  3P 3D renormalized
     file Mg.pbe-spnl-kjpaw_psl.1.0.0.UPF: wavefunction(s)  2P renormalized
     file Si.pbe-n-kjpaw_psl.1.0.0.UPF: wavefunction(s)  3S 3P renormalized
     file O.pbe-n-kjpaw_psl.1.0.0.UPF: wavefunction(s)  2S 2P renormalized

     Subspace diagonalization in iterative solution of the eigenvalue problem:
     one sub-group per band group will be used
     scalapack distributed-memory algorithm (size of sub-group:  3*  3 procs)

     Message from routine setup:
     using ibrav=0 with symmetry is DISCOURAGED, use correct ibrav instead

     Parallelization info
     --------------------
     sticks:   dense  smooth     PW     G-vecs:    dense   smooth      PW
     Min         473     236     66                24842     8786    1300
     Max         475     237     67                24844     8789    1302
     Sum        6629    3311    929               347803   123029   18213



     bravais-lattice index     =            0
     lattice parameter (alat)  =       8.9841  a.u.
     unit-cell volume          =    1959.1283 (a.u.)^3
     number of atoms/cell      =           28
     number of atomic types    =            4
     number of electrons       =       216.00
     number of Kohn-Sham states=          130
     kinetic-energy cutoff     =      60.0000  Ry
     charge density cutoff     =     480.0000  Ry
     scf convergence threshold =      1.0E-07
     mixing beta               =       0.3000
     number of iterations used =            8  plain     mixing
     energy convergence thresh.=      1.0E-05
     force convergence thresh. =      1.0E-04
     press convergence thresh. =      5.0E-01
     Exchange-correlation= SLA  PW   PBX  PBC
                           (   1   4   3   4   0   0   0)
     nstep                     =          250


     celldm(1)=   8.984136  celldm(2)=   0.000000  celldm(3)=   0.000000
     celldm(4)=   0.000000  celldm(5)=   0.000000  celldm(6)=   0.000000

     crystal axes: (cart. coord. in units of alat)
               a(1) = (   1.000000   0.000000   0.000000 )  
               a(2) = (   0.000000   2.146481   0.000000 )  
               a(3) = (   0.000000   0.000000   1.258656 )  

     reciprocal axes: (cart. coord. in units 2 pi/alat)
               b(1) = (  1.000000  0.000000  0.000000 )  
               b(2) = (  0.000000  0.465879  0.000000 )  
               b(3) = (  0.000000  0.000000  0.794499 )  


     PseudoPot. # 1 for Fe read from file:
     /mnt/c/Users/busta/Code/mqmqa/data/olivine/_dft/pseudo/Fe.pbe-spn-kjpaw_psl.1.0.0.UPF
     MD5 check sum: b6da53cdaab7fe9413c4d0a2c79db549
     Pseudo is Projector augmented-wave + core cor, Zval = 16.0
     Generated using &quot;atomic&quot; code by A. Dal Corso  v.6.3
     Shape of augmentation charge: PSQ
     Using radial grid of 1191 points,  6 beta functions with: 
                l(1) =   0
                l(2) =   0
                l(3) =   1
                l(4) =   1
                l(5) =   2
                l(6) =   2
     Q(r) pseudized with 0 coefficients 


     PseudoPot. # 2 for Mg read from file:
     /mnt/c/Users/busta/Code/mqmqa/data/olivine/_dft/pseudo/Mg.pbe-spnl-kjpaw_psl.1.0.0.UPF
     MD5 check sum: fda14e0d92a6a9a5ebed782e5a4b3067
     Pseudo is Projector augmented-wave + core cor, Zval = 10.0
     Generated using &quot;atomic&quot; code by A. Dal Corso  v.6.3
     Shape of augmentation charge: PSQ
     Using radial grid of 1129 points,  4 beta functions with: 
                l(1) =   0
                l(2) =   0
                l(3) =   1
                l(4) =   1
     Q(r) pseudized with 0 coefficients 


     PseudoPot. # 3 for Si read from file:
     /mnt/c/Users/busta/Code/mqmqa/data/olivine/_dft/pseudo/Si.pbe-n-kjpaw_psl.1.0.0.UPF
     MD5 check sum: c39c59da582df4a0d9f10159256ea34e
     Pseudo is Projector augmented-wave + core cor, Zval =  4.0
     Generated using &quot;atomic&quot; code by A. Dal Corso  v.6.3
     Shape of augmentation charge: PSQ
     Using radial grid of 1141 points,  6 beta functions with: 
                l(1) =   0
                l(2) =   0
                l(3) =   1
                l(4) =   1
                l(5) =   2
                l(6) =   2
     Q(r) pseudized with 0 coefficients 


     PseudoPot. # 4 for O  read from file:
     /mnt/c/Users/busta/Code/mqmqa/data/olivine/_dft/pseudo/O.pbe-n-kjpaw_psl.1.0.0.UPF
     MD5 check sum: e99d9cef9b487d1ca56f5b95ecd0fd7a
     Pseudo is Projector augmented-wave + core cor, Zval =  6.0
     Generated using &quot;atomic&quot; code by A. Dal Corso  v.6.3
     Shape of augmentation charge: PSQ
     Using radial grid of 1095 points,  4 beta functions with: 
                l(1) =   0
                l(2) =   0
                l(3) =   1
                l(4) =   1
     Q(r) pseudized with 0 coefficients 


     atomic species   valence    mass     pseudopotential
        Fe            16.00    55.84500     Fe( 1.00)
        Mg            10.00    24.30500     Mg( 1.00)
        Si             4.00    28.08500     Si( 1.00)
        O              6.00    15.99900     O ( 1.00)

     Starting magnetic structure 
     atomic species   magnetization
        Fe           0.500
        Mg           0.000
        Si           0.000
        O            0.000

      8 Sym. Ops., with inversion, found ( 6 have fractional translation)



   Cartesian axes

     site n.     atom                  positions (alat units)
         1           Fe  tau(   1) = (   0.0000000   0.0000000   0.0000000  )
         2           Fe  tau(   2) = (   0.5000000   1.0732405   0.0000000  )
         3           Fe  tau(   3) = (   0.0000000   0.0000000   0.6293278  )
         4           Fe  tau(   4) = (   0.5000000   1.0732405   0.6293278  )
         5           Mg  tau(   5) = (   0.0147000   0.5941459   0.9439916  )
         6           Mg  tau(   6) = (   0.9853000   1.5523351   0.3146639  )
         7           Mg  tau(   7) = (   0.5147000   0.4790946   0.3146639  )
         8           Mg  tau(   8) = (   0.4853000   1.6673864   0.9439916  )
         9           Si  tau(   9) = (   0.0701000   0.8607389   0.3146639  )
        10           Si  tau(  10) = (   0.9299000   1.2857421   0.9439916  )
        11           Si  tau(  11) = (   0.5701000   0.2125016   0.9439916  )
        12           Si  tau(  12) = (   0.4299000   1.9339794   0.3146639  )
        13           O   tau(  13) = (   0.2461000   0.1833095   0.9439916  )
        14           O   tau(  14) = (   0.7539000   1.9631715   0.3146639  )
        15           O   tau(  15) = (   0.7461000   0.8899310   0.3146639  )
        16           O   tau(  16) = (   0.2539000   1.2565500   0.9439916  )
        17           O   tau(  17) = (   0.2809000   0.1047483   0.3146639  )
        18           O   tau(  18) = (   0.7191000   2.0417327   0.9439916  )
        19           O   tau(  19) = (   0.7809000   0.9684922   0.9439916  )
        20           O   tau(  20) = (   0.2191000   1.1779888   0.3146639  )
        21           O   tau(  21) = (   0.2222000   0.7424678   0.5588430  )
        22           O   tau(  22) = (   0.7778000   1.4040132   0.6998125  )
        23           O   tau(  23) = (   0.7222000   0.3307727   0.6998125  )
        24           O   tau(  24) = (   0.2778000   1.8157083   0.5588430  )
        25           O   tau(  25) = (   0.7778000   1.4040132   1.1881708  )
        26           O   tau(  26) = (   0.2222000   0.7424678   0.0704847  )
        27           O   tau(  27) = (   0.2778000   1.8157083   0.0704847  )
        28           O   tau(  28) = (   0.7222000   0.3307727   1.1881708  )

     number of k points=     4  Gaussian smearing, width (Ry)=  0.0100
                       cart. coord. in units 2pi/alat
        k(    1) = (   0.0000000   0.0000000   0.0000000), wk =   0.2500000
        k(    2) = (   0.0000000   0.0000000  -0.3972493), wk =   0.2500000
        k(    3) = (  -0.5000000   0.0000000   0.0000000), wk =   0.2500000
        k(    4) = (  -0.5000000   0.0000000  -0.3972493), wk =   0.2500000

     Dense  grid:   347803 G-vectors     FFT dimensions: (  64, 144,  80)

     Smooth grid:   123029 G-vectors     FFT dimensions: (  48,  96,  60)

     Estimated max dynamical RAM per process >     153.18 MB

     Estimated total dynamical RAM >       2.09 GB

     Check: negative core charge=   -0.000005
     Generating pointlists ...
     new r_m :   0.1793 (alat units)  1.6107 (a.u.) for type    1
     new r_m :   0.1821 (alat units)  1.6357 (a.u.) for type    2
     new r_m :   0.1283 (alat units)  1.1527 (a.u.) for type    3
     new r_m :   0.1283 (alat units)  1.1527 (a.u.) for type    4

     Initial potential from superposition of free atoms

     starting charge  215.99230, renormalised to  216.00000
     Starting wfcs are  140 randomized atomic wfcs
     Checking if some PAW data can be deallocated... 

     total cpu time spent up to now is       20.3 secs

     Self-consistent Calculation

     iteration #  1     ecut=    60.00 Ry     beta= 0.30
     Davidson diagonalization with overlap
     ethr =  1.00E-02,  avg # of iterations =  7.9

     total cpu time spent up to now is       66.3 secs

     total energy              =   -2734.80119773 Ry
     estimated scf accuracy    <      10.23634904 Ry

     total magnetization       =    16.57 Bohr mag/cell
     absolute magnetization    =    16.83 Bohr mag/cell

     iteration #  2     ecut=    60.00 Ry     beta= 0.30
     Davidson diagonalization with overlap
     ethr =  4.74E-03,  avg # of iterations =  4.2

     negative rho (up, down):  0.000E+00 5.459E-04

     total cpu time spent up to now is      104.6 secs

     total energy              =   -2736.28327381 Ry
     estimated scf accuracy    <       2.22146051 Ry

     total magnetization       =    16.00 Bohr mag/cell
     absolute magnetization    =    16.09 Bohr mag/cell

     iteration #  3     ecut=    60.00 Ry     beta= 0.30
     Davidson diagonalization with overlap
     ethr =  1.03E-03,  avg # of iterations =  5.2

     negative rho (up, down):  0.000E+00 7.011E-04

     total cpu time spent up to now is      161.5 secs

     total energy              =   -2737.57490501 Ry
     estimated scf accuracy    <       1.29618881 Ry

     total magnetization       =    16.00 Bohr mag/cell
     absolute magnetization    =    16.11 Bohr mag/cell

     iteration #  4     ecut=    60.00 Ry     beta= 0.30
     Davidson diagonalization with overlap
     ethr =  6.00E-04,  avg # of iterations =  2.6

     negative rho (up, down):  0.000E+00 1.789E-03

     total cpu time spent up to now is      193.0 secs

     total energy              =   -2737.73251275 Ry
     estimated scf accuracy    <       0.52761122 Ry

     total magnetization       =    16.00 Bohr mag/cell
     absolute magnetization    =    16.11 Bohr mag/cell

     iteration #  5     ecut=    60.00 Ry     beta= 0.30
     Davidson diagonalization with overlap
     ethr =  2.44E-04,  avg # of iterations =  6.1

     negative rho (up, down):  0.000E+00 1.786E-03

     total cpu time spent up to now is      258.8 secs

     total energy              =   -2737.86977147 Ry
     estimated scf accuracy    <       1.74780223 Ry

     total magnetization       =    16.00 Bohr mag/cell
     absolute magnetization    =    16.13 Bohr mag/cell

     iteration #  6     ecut=    60.00 Ry     beta= 0.30
     Davidson diagonalization with overlap
     ethr =  2.44E-04,  avg # of iterations =  2.1

     negative rho (up, down):  0.000E+00 1.733E-03

     total cpu time spent up to now is      293.8 secs

     total energy              =   -2737.55190317 Ry
     estimated scf accuracy    <       0.64674299 Ry

     total magnetization       =    16.00 Bohr mag/cell
     absolute magnetization    =    16.13 Bohr mag/cell

     iteration #  7     ecut=    60.00 Ry     beta= 0.30
     Davidson diagonalization with overlap
     ethr =  2.44E-04,  avg # of iterations =  5.6

     negative rho (up, down):  0.000E+00 1.719E-03

     total cpu time spent up to now is      352.1 secs

     total energy              =   -2737.86765137 Ry
     estimated scf accuracy    <       0.14658473 Ry

     total magnetization       =    16.00 Bohr mag/cell
     absolute magnetization    =    16.12 Bohr mag/cell

     iteration #  8     ecut=    60.00 Ry     beta= 0.30
     Davidson diagonalization with overlap
     ethr =  6.79E-05,  avg # of iterations =  7.8

     negative rho (up, down):  0.000E+00 1.669E-03

     total cpu time spent up to now is      387.9 secs

     total energy              =   -2737.85680495 Ry
     estimated scf accuracy    <       0.05698179 Ry

     total magnetization       =    16.00 Bohr mag/cell
     absolute magnetization    =    16.12 Bohr mag/cell

     iteration #  9     ecut=    60.00 Ry     beta= 0.30
     Davidson diagonalization with overlap
     c_bands:  1 eigenvalues not converged
     ethr =  2.64E-05,  avg # of iterations =  6.6

     negative rho (up, down):  0.000E+00 1.648E-03

     total cpu time spent up to now is      430.2 secs

     total energy              =   -2737.86399014 Ry
     estimated scf accuracy    <       0.00917862 Ry

     total magnetization       =    16.00 Bohr mag/cell
     absolute magnetization    =    16.13 Bohr mag/cell

     iteration # 10     ecut=    60.00 Ry     beta= 0.30
     Davidson diagonalization with overlap
     c_bands:  1 eigenvalues not converged
     c_bands:  1 eigenvalues not converged
     c_bands:  1 eigenvalues not converged
     c_bands:  2 eigenvalues not converged
     ethr =  4.25E-06,  avg # of iterations = 14.0

     negative rho (up, down):  0.000E+00 1.648E-03

     total cpu time spent up to now is      492.2 secs

     total energy              =   -2737.86869772 Ry
     estimated scf accuracy    <       0.00085019 Ry

     total magnetization       =    16.00 Bohr mag/cell
     absolute magnetization    =    16.12 Bohr mag/cell

     iteration # 11     ecut=    60.00 Ry     beta= 0.30
     Davidson diagonalization with overlap
     c_bands:  1 eigenvalues not converged
     ethr =  3.94E-07,  avg # of iterations = 11.8

     negative rho (up, down):  0.000E+00 1.638E-03

     total cpu time spent up to now is      536.3 secs

     total energy              =   -2737.86891859 Ry
     estimated scf accuracy    <       0.00030098 Ry

     total magnetization       =    16.00 Bohr mag/cell
     absolute magnetization    =    16.12 Bohr mag/cell

     iteration # 12     ecut=    60.00 Ry     beta= 0.30
     Davidson diagonalization with overlap
     ethr =  1.39E-07,  avg # of iterations =  5.5

     negative rho (up, down):  0.000E+00 1.633E-03

     total cpu time spent up to now is      581.1 secs

     total energy              =   -2737.86915836 Ry
     estimated scf accuracy    <       0.00019556 Ry

     total magnetization       =    16.00 Bohr mag/cell
     absolute magnetization    =    16.13 Bohr mag/cell

     iteration # 13     ecut=    60.00 Ry     beta= 0.30
     Davidson diagonalization with overlap
     ethr =  9.05E-08,  avg # of iterations =  2.0

     negative rho (up, down):  0.000E+00 1.629E-03

     total cpu time spent up to now is      617.6 secs

     total energy              =   -2737.86916408 Ry
     estimated scf accuracy    <       0.00018678 Ry

     total magnetization       =    16.00 Bohr mag/cell
     absolute magnetization    =    16.13 Bohr mag/cell

     iteration # 14     ecut=    60.00 Ry     beta= 0.30
     Davidson diagonalization with overlap
     ethr =  8.65E-08,  avg # of iterations =  3.8

     negative rho (up, down):  0.000E+00 1.638E-03

     total cpu time spent up to now is      664.0 secs

     total energy              =   -2737.86942246 Ry
     estimated scf accuracy    <       0.00008005 Ry

     total magnetization       =    16.00 Bohr mag/cell
     absolute magnetization    =    16.13 Bohr mag/cell

     iteration # 15     ecut=    60.00 Ry     beta= 0.30
     Davidson diagonalization with overlap
     ethr =  3.71E-08,  avg # of iterations =  4.9

     negative rho (up, down):  0.000E+00 1.640E-03

     total cpu time spent up to now is      723.9 secs

     total energy              =   -2737.86930857 Ry
     estimated scf accuracy    <       0.00025194 Ry

     total magnetization       =    16.00 Bohr mag/cell
     absolute magnetization    =    16.13 Bohr mag/cell

     iteration # 16     ecut=    60.00 Ry     beta= 0.30
     Davidson diagonalization with overlap
     ethr =  3.71E-08,  avg # of iterations =  5.0

     negative rho (up, down):  0.000E+00 1.642E-03

     total cpu time spent up to now is      777.3 secs

     total energy              =   -2737.86948034 Ry
     estimated scf accuracy    <       0.00004970 Ry

     total magnetization       =    16.00 Bohr mag/cell
     absolute magnetization    =    16.13 Bohr mag/cell

     iteration # 17     ecut=    60.00 Ry     beta= 0.30
     Davidson diagonalization with overlap
     ethr =  2.30E-08,  avg # of iterations =  2.8

     negative rho (up, down):  0.000E+00 1.640E-03

     total cpu time spent up to now is      815.5 secs

     total energy              =   -2737.86949298 Ry
     estimated scf accuracy    <       0.00000541 Ry

     total magnetization       =    16.00 Bohr mag/cell
     absolute magnetization    =    16.13 Bohr mag/cell

     iteration # 18     ecut=    60.00 Ry     beta= 0.30
     Davidson diagonalization with overlap
     ethr =  2.51E-09,  avg # of iterations =  5.5

     negative rho (up, down):  0.000E+00 1.640E-03

     total cpu time spent up to now is      876.0 secs

     total energy              =   -2737.86950132 Ry
     estimated scf accuracy    <       0.00000186 Ry

     total magnetization       =    16.00 Bohr mag/cell
     absolute magnetization    =    16.13 Bohr mag/cell

     iteration # 19     ecut=    60.00 Ry     beta= 0.30
     Davidson diagonalization with overlap
     ethr =  8.62E-10,  avg # of iterations =  2.0

     negative rho (up, down):  0.000E+00 1.638E-03

     total cpu time spent up to now is      903.7 secs

     total energy              =   -2737.86950134 Ry
     estimated scf accuracy    <       0.00000106 Ry

     total magnetization       =    16.00 Bohr mag/cell
     absolute magnetization    =    16.13 Bohr mag/cell

     iteration # 20     ecut=    60.00 Ry     beta= 0.30
     Davidson diagonalization with overlap
     ethr =  4.92E-10,  avg # of iterations =  3.9

     negative rho (up, down):  0.000E+00 1.638E-03

     total cpu time spent up to now is      936.5 secs

     total energy              =   -2737.86950272 Ry
     estimated scf accuracy    <       0.00000012 Ry

     total magnetization       =    16.00 Bohr mag/cell
     absolute magnetization    =    16.13 Bohr mag/cell

     iteration # 21     ecut=    60.00 Ry     beta= 0.30
     Davidson diagonalization with overlap
     ethr =  5.66E-11,  avg # of iterations =  7.0

     negative rho (up, down):  0.000E+00 1.638E-03

     Magnetic moment per site:
     atom:    1    charge:   13.3917    magn:    3.3418    constr:    0.0000
     atom:    2    charge:   13.3917    magn:    3.3418    constr:    0.0000
     atom:    3    charge:   13.3917    magn:    3.3418    constr:    0.0000
     atom:    4    charge:   13.3917    magn:    3.3418    constr:    0.0000
     atom:    5    charge:    8.1091    magn:    0.0011    constr:    0.0000
     atom:    6    charge:    8.1091    magn:    0.0011    constr:    0.0000
     atom:    7    charge:    8.1091    magn:    0.0011    constr:    0.0000
     atom:    8    charge:    8.1091    magn:    0.0011    constr:    0.0000
     atom:    9    charge:    0.4768    magn:    0.0032    constr:    0.0000
     atom:   10    charge:    0.4768    magn:    0.0032    constr:    0.0000
     atom:   11    charge:    0.4768    magn:    0.0032    constr:    0.0000
     atom:   12    charge:    0.4768    magn:    0.0032    constr:    0.0000
     atom:   13    charge:    4.0906    magn:    0.0788    constr:    0.0000
     atom:   14    charge:    4.0906    magn:    0.0788    constr:    0.0000
     atom:   15    charge:    4.0906    magn:    0.0788    constr:    0.0000
     atom:   16    charge:    4.0906    magn:    0.0788    constr:    0.0000
     atom:   17    charge:    4.0586    magn:    0.0937    constr:    0.0000
     atom:   18    charge:    4.0586    magn:    0.0937    constr:    0.0000
     atom:   19    charge:    4.0586    magn:    0.0937    constr:    0.0000
     atom:   20    charge:    4.0586    magn:    0.0937    constr:    0.0000
     atom:   21    charge:    4.1372    magn:    0.0427    constr:    0.0000
     atom:   22    charge:    4.1372    magn:    0.0427    constr:    0.0000
     atom:   23    charge:    4.1372    magn:    0.0427    constr:    0.0000
     atom:   24    charge:    4.1372    magn:    0.0427    constr:    0.0000
     atom:   25    charge:    4.1372    magn:    0.0427    constr:    0.0000
     atom:   26    charge:    4.1372    magn:    0.0427    constr:    0.0000
     atom:   27    charge:    4.1372    magn:    0.0427    constr:    0.0000
     atom:   28    charge:    4.1372    magn:    0.0427    constr:    0.0000

     total cpu time spent up to now is      991.6 secs

     End of self-consistent calculation

 ------ SPIN UP ------------


          k = 0.0000 0.0000 0.0000 ( 15339 PWs)   bands (ev):

   -79.1156 -79.1155 -79.1132 -79.1132 -65.8742 -65.8742 -65.8741 -65.8741
   -45.6648 -45.6648 -45.6591 -45.6591 -45.1146 -45.1145 -45.1067 -45.1067
   -44.7898 -44.7897 -44.7583 -44.7583 -32.6464 -32.6464 -32.6442 -32.6442
   -32.6094 -32.6093 -32.6061 -32.6061 -32.6028 -32.6027 -32.6024 -32.6024
   -12.4538 -12.2744 -12.0556 -11.9282 -10.4968 -10.4607 -10.4540 -10.4274
   -10.2666 -10.1507 -10.1276 -10.0138  -9.5274  -9.4509  -9.4178  -9.4142
     0.3915   0.5530   1.1748   1.3075   1.3291   1.4703   2.1109   2.1833
     2.2004   2.3555   2.3874   2.6132   2.6358   3.3561   3.3618   3.5033
     3.5174   3.5251   3.6025   3.7339   3.9118   3.9777   4.0025   4.0510
     4.1762   4.2820   4.3552   4.3868   4.4464   4.4471   4.6765   4.8681
     4.9387   5.0440   5.1983   5.2511   5.2810   5.5711   5.6853   5.6901
     5.7301   5.7539   5.8492   5.9756   6.1676   6.4390   6.5685   6.5847
     7.0884   7.1156   7.1744   7.3128   7.3391   7.3434   7.8524   7.8538
     8.1110   8.1638   8.3628   8.4044   8.9496   9.0743   9.1146   9.1775
     9.3449   9.3645   9.6969   9.7744  11.8152  13.7702  13.9240  14.4895
    15.4469  16.0587  16.0746  16.3722  16.5864  16.9995  17.0395  17.0517
    17.1293  17.2481

          k = 0.0000 0.0000-0.3972 ( 15392 PWs)   bands (ev):

   -79.1144 -79.1144 -79.1144 -79.1144 -65.8742 -65.8742 -65.8742 -65.8742
   -45.6620 -45.6620 -45.6619 -45.6619 -45.1106 -45.1106 -45.1105 -45.1105
   -44.7743 -44.7743 -44.7743 -44.7743 -32.6453 -32.6453 -32.6453 -32.6453
   -32.6078 -32.6078 -32.6078 -32.6078 -32.6026 -32.6026 -32.6025 -32.6025
   -12.2023 -12.2023 -12.1464 -12.1464 -10.4662 -10.4662 -10.4631 -10.4631
   -10.1949 -10.1949 -10.1425 -10.1425  -9.4594  -9.4594  -9.4082  -9.4082
     0.8376   0.8376   0.8722   0.8722   1.8795   1.8795   2.1401   2.1401
     2.3680   2.3680   2.8057   2.8057   2.9388   2.9388   3.2148   3.2148
     3.3281   3.3281   3.7304   3.7304   3.9170   3.9170   4.0822   4.0822
     4.1490   4.1490   4.1915   4.1915   4.4245   4.4245   4.4855   4.4855
     5.1893   5.1893   5.1934   5.1934   5.2725   5.2725   5.3749   5.3749
     5.6756   5.6756   5.7868   5.7868   6.2231   6.2231   6.3772   6.3772
     7.2641   7.2641   7.3245   7.3245   7.7819   7.7819   7.7932   7.7932
     8.2122   8.2122   8.2764   8.2764   9.0037   9.0037   9.0161   9.0161
     9.3873   9.3873   9.4459   9.4459  13.4030  13.4030  14.3781  14.3781
    15.4387  15.4387  16.7691  16.7691  17.0514  17.0514  17.2464  17.2464
    17.7416  17.7417

          k =-0.5000 0.0000 0.0000 ( 15374 PWs)   bands (ev):

   -79.1156 -79.1156 -79.1132 -79.1132 -65.8742 -65.8742 -65.8742 -65.8742
   -45.6649 -45.6649 -45.6591 -45.6591 -45.1147 -45.1147 -45.1067 -45.1067
   -44.7898 -44.7898 -44.7583 -44.7583 -32.6455 -32.6455 -32.6454 -32.6454
   -32.6077 -32.6077 -32.6077 -32.6077 -32.6026 -32.6026 -32.6025 -32.6025
   -12.0751 -12.0751 -11.9152 -11.9152 -10.8298 -10.8298 -10.6079 -10.6079
   -10.1525 -10.1525 -10.1150 -10.1150  -9.5828  -9.5828  -9.3400  -9.3400
     1.1055   1.1055   1.3050   1.3050   2.1198   2.1198   2.2808   2.2808
     2.3789   2.3789   2.5976   2.5976   2.6674   2.6674   2.7483   2.7483
     3.1994   3.1994   3.3303   3.3303   3.4827   3.4827   3.6510   3.6510
     4.2751   4.2751   4.3657   4.3657   4.5444   4.5444   4.7663   4.7663
     5.0317   5.0317   5.2352   5.2352   5.3367   5.3367   5.6968   5.6968
     5.7893   5.7893   6.3925   6.3925   6.5196   6.5196   6.8340   6.8340
     7.1824   7.1824   7.2484   7.2484   7.4443   7.4443   7.8996   7.8996
     8.0251   8.0251   8.3381   8.3381   8.6072   8.6072   9.2120   9.2120
     9.4956   9.4956   9.6389   9.6389  13.9145  13.9145  14.7113  14.7113
    15.5411  15.5411  16.0680  16.0680  16.1473  16.1473  16.3224  16.3224
    17.0502  17.0502

          k =-0.5000 0.0000-0.3972 ( 15436 PWs)   bands (ev):

   -79.1144 -79.1144 -79.1144 -79.1144 -65.8742 -65.8742 -65.8742 -65.8742
   -45.6620 -45.6620 -45.6620 -45.6620 -45.1106 -45.1106 -45.1106 -45.1106
   -44.7743 -44.7743 -44.7743 -44.7743 -32.6455 -32.6455 -32.6455 -32.6455
   -32.6078 -32.6078 -32.6077 -32.6077 -32.6026 -32.6026 -32.6026 -32.6026
   -11.9959 -11.9959 -11.9602 -11.9602 -10.7515 -10.7515 -10.7235 -10.7235
   -10.1654 -10.1654 -10.1308 -10.1308  -9.5012  -9.5012  -9.4191  -9.4191
     1.3153   1.3153   1.4202   1.4202   2.0859   2.0859   2.3997   2.3997
     2.5673   2.5673   2.6960   2.6960   2.8079   2.8079   3.0504   3.0504
     3.1074   3.1074   3.1176   3.1176   3.3736   3.3736   3.5061   3.5061
     4.0068   4.0068   4.0269   4.0269   4.7137   4.7137   4.7564   4.7564
     5.1456   5.1456   5.2156   5.2156   5.3303   5.3303   5.6602   5.6602
     5.9292   5.9292   6.0029   6.0029   6.0916   6.0916   6.3793   6.3793
     7.2764   7.2764   7.3138   7.3138   7.8825   7.8825   7.8827   7.8827
     8.1463   8.1463   8.1937   8.1937   8.8768   8.8768   8.9026   8.9026
     9.4359   9.4359   9.4744   9.4744  14.5531  14.5531  14.8912  14.8912
    15.8862  15.8862  16.1231  16.1231  16.7956  16.7956  16.7982  16.7982
    17.5857  17.5873

 ------ SPIN DOWN ----------


          k = 0.0000 0.0000 0.0000 ( 15339 PWs)   bands (ev):

   -74.9955 -74.9953 -74.9927 -74.9927 -65.8735 -65.8735 -65.8734 -65.8734
   -41.3058 -41.3058 -41.2970 -41.2970 -41.1524 -41.1523 -41.1438 -41.1438
   -41.0553 -41.0552 -41.0163 -41.0162 -32.6460 -32.6460 -32.6438 -32.6438
   -32.6084 -32.6084 -32.6052 -32.6052 -32.6018 -32.6016 -32.6014 -32.6013
   -12.3414 -12.1590 -11.9551 -11.8243 -10.3523 -10.3126 -10.3091 -10.2768
   -10.1686 -10.0598 -10.0286  -9.9221  -9.3433  -9.2570  -9.2320  -9.2229
     0.6394   0.7827   1.3189   1.4405   1.5039   1.6085   2.2814   2.4130
     2.4187   2.4651   2.7208   2.7465   2.9270   3.4804   3.4884   3.6319
     3.8849   3.9709   4.1061   4.1583   4.2776   4.3736   4.3815   4.3861
     4.4259   4.5551   4.6060   4.6464   4.8134   5.0033   5.0576   5.2139
     5.2193   5.3852   5.4791   5.5973   5.7927   5.8194   5.8635   6.0341
     6.0669   6.1257   6.2511   6.3348   6.5637   6.5769   6.7709   6.8045
     9.9750  10.0494  10.3682  10.4623  10.6717  10.7311  10.8895  10.9987
    11.0786  11.1634  11.4166  11.4263  12.1235  12.3852  12.4530  12.5566
    12.6078  12.6981  12.7233  12.7612  12.8240  14.0474  14.2419  14.5373
    15.6083  16.1742  16.3570  16.5463  16.8391  17.2126  17.2484  17.2741
    17.4284  17.5601

          k = 0.0000 0.0000-0.3972 ( 15392 PWs)   bands (ev):

   -74.9941 -74.9941 -74.9941 -74.9941 -65.8735 -65.8735 -65.8735 -65.8735
   -41.3013 -41.3013 -41.3013 -41.3013 -41.1478 -41.1478 -41.1477 -41.1477
   -41.0363 -41.0363 -41.0363 -41.0363 -32.6449 -32.6449 -32.6449 -32.6449
   -32.6069 -32.6069 -32.6069 -32.6069 -32.6015 -32.6015 -32.6014 -32.6014
   -12.0929 -12.0929 -12.0378 -12.0378 -10.3229 -10.3229 -10.3204 -10.3204
   -10.0933 -10.0933 -10.0441 -10.0441  -9.2740  -9.2740  -9.2203  -9.2203
     1.0486   1.0486   1.0738   1.0738   2.0395   2.0395   2.2473   2.2473
     2.5473   2.5473   3.0540   3.0540   3.1324   3.1324   3.4883   3.4883
     3.8274   3.8274   4.1039   4.1039   4.2219   4.2219   4.3282   4.3282
     4.3824   4.3824   4.4931   4.4931   4.8301   4.8301   4.9036   4.9036
     5.4115   5.4115   5.5203   5.5203   5.6815   5.6815   5.7389   5.7389
     6.0442   6.0442   6.1262   6.1262   6.6636   6.6636   6.6672   6.6672
    10.4670  10.4670  10.5103  10.5103  10.8117  10.8117  10.8260  10.8260
    11.0385  11.0385  11.1317  11.1317  12.3797  12.3797  12.4069  12.4069
    12.6523  12.6523  12.7213  12.7213  13.7171  13.7171  14.6502  14.6502
    15.7648  15.7648  16.9103  16.9103  17.2379  17.2379  17.5404  17.5404
    17.9340  17.9344

          k =-0.5000 0.0000 0.0000 ( 15374 PWs)   bands (ev):

   -74.9955 -74.9955 -74.9927 -74.9927 -65.8735 -65.8735 -65.8735 -65.8735
   -41.3060 -41.3060 -41.2970 -41.2970 -41.1525 -41.1525 -41.1438 -41.1438
   -41.0553 -41.0553 -41.0163 -41.0163 -32.6451 -32.6451 -32.6450 -32.6450
   -32.6068 -32.6068 -32.6068 -32.6068 -32.6015 -32.6015 -32.6015 -32.6015
   -11.9722 -11.9722 -11.8146 -11.8146 -10.6662 -10.6662 -10.4609 -10.4609
   -10.0541 -10.0541 -10.0237 -10.0237  -9.3910  -9.3910  -9.1596  -9.1596
     1.3068   1.3068   1.4012   1.4012   2.3722   2.3722   2.4766   2.4766
     2.6075   2.6075   2.8319   2.8319   2.9370   2.9370   3.0018   3.0018
     3.3926   3.3926   3.6739   3.6739   3.7181   3.7181   3.9269   3.9269
     4.5592   4.5592   4.7887   4.7887   4.8829   4.8829   5.1277   5.1277
     5.4404   5.4404   5.7008   5.7008   6.0111   6.0111   6.0482   6.0482
     6.0780   6.0780   6.5245   6.5245   6.7016   6.7016   7.0465   7.0465
    10.0469  10.0469  10.3631  10.3631  10.6844  10.6844  10.9585  10.9585
    11.2014  11.2014  11.4478  11.4478  12.0318  12.0318  12.4432  12.4432
    12.7861  12.7861  12.8278  12.8278  14.0905  14.0905  14.9852  14.9852
    15.6903  15.6903  16.3271  16.3271  16.3542  16.3542  16.6565  16.6565
    17.2818  17.2818

          k =-0.5000 0.0000-0.3972 ( 15436 PWs)   bands (ev):

   -74.9942 -74.9942 -74.9942 -74.9942 -65.8735 -65.8735 -65.8735 -65.8735
   -41.3014 -41.3014 -41.3014 -41.3014 -41.1478 -41.1478 -41.1478 -41.1478
   -41.0364 -41.0364 -41.0363 -41.0363 -32.6451 -32.6451 -32.6451 -32.6451
   -32.6069 -32.6069 -32.6068 -32.6068 -32.6015 -32.6015 -32.6015 -32.6015
   -11.8935 -11.8935 -11.8583 -11.8583 -10.6012 -10.6012 -10.5677 -10.5677
   -10.0699 -10.0699 -10.0306 -10.0306  -9.3161  -9.3161  -9.2345  -9.2345
     1.4684   1.4684   1.6062   1.6062   2.3636   2.3636   2.6501   2.6501
     2.8269   2.8269   2.9660   2.9660   2.9924   2.9924   3.2332   3.2332
     3.3230   3.3230   3.3858   3.3858   3.6518   3.6518   3.6796   3.6796
     4.2430   4.2430   4.3163   4.3163   5.1060   5.1060   5.1132   5.1132
     5.4455   5.4455   5.8443   5.8443   5.8689   5.8689   6.1281   6.1281
     6.3240   6.3240   6.3692   6.3692   6.4183   6.4183   6.6343   6.6343
    10.4269  10.4269  10.4481  10.4481  10.9043  10.9043  10.9166  10.9166
    11.0699  11.0699  11.0982  11.0982  12.1594  12.1594  12.2044  12.2044
    12.6194  12.6194  12.6343  12.6343  14.8351  14.8351  15.1692  15.1692
    16.0717  16.0717  16.3304  16.3304  17.1170  17.1170  17.1848  17.1848
    17.6667  17.6668

     the Fermi energy is    10.6022 ev

!    total energy              =   -2737.86950313 Ry

     total all-electron energy =    -16515.070413 Ry
     estimated scf accuracy    <       0.00000009 Ry
     smearing contrib. (-TS)   =      -0.00448795 Ry
     internal energy E=F+TS    =   -2737.86501518 Ry

     The total energy is F=E-TS. E is the sum of the following terms:
     one-electron contribution =   -1258.19595551 Ry
     hartree contribution      =     734.69961719 Ry
     xc contribution           =    -330.41137117 Ry
     ewald contribution        =   -1197.33345754 Ry
     one-center paw contrib.   =    -686.62384815 Ry

     total magnetization       =    16.00 Bohr mag/cell
     absolute magnetization    =    16.13 Bohr mag/cell

     convergence has been achieved in  21 iterations

     negative rho (up, down):  0.000E+00 1.638E-03

     Forces acting on atoms (cartesian axes, Ry/au):

     atom    1 type  1   force =     0.00000000    0.00000000    0.00000000
     atom    2 type  1   force =     0.00000000   -0.00000000    0.00000000
     atom    3 type  1   force =     0.00000000    0.00000000    0.00000000
     atom    4 type  1   force =     0.00000000    0.00000000   -0.00000000
     atom    5 type  2   force =    -0.00239865    0.01708359   -0.00000000
     atom    6 type  2   force =     0.00239865   -0.01708359    0.00000000
     atom    7 type  2   force =    -0.00239865   -0.01708359   -0.00000000
     atom    8 type  2   force =     0.00239865    0.01708359   -0.00000000
     atom    9 type  3   force =    -0.11680974    0.23301306    0.00000000
     atom   10 type  3   force =     0.11680974   -0.23301306    0.00000000
     atom   11 type  3   force =    -0.11680974   -0.23301306   -0.00000000
     atom   12 type  3   force =     0.11680974    0.23301306   -0.00000000
     atom   13 type  4   force =    -0.12182771    0.04796986   -0.00000000
     atom   14 type  4   force =     0.12182771   -0.04796986    0.00000000
     atom   15 type  4   force =    -0.12182771   -0.04796986    0.00000000
     atom   16 type  4   force =     0.12182771    0.04796986   -0.00000000
     atom   17 type  4   force =     0.02983079    0.10792855    0.00000000
     atom   18 type  4   force =    -0.02983079   -0.10792855   -0.00000000
     atom   19 type  4   force =     0.02983079   -0.10792855   -0.00000000
     atom   20 type  4   force =    -0.02983079    0.10792855    0.00000000
     atom   21 type  4   force =     0.10847894   -0.19222643    0.31277602
     atom   22 type  4   force =    -0.10847894    0.19222643   -0.31277602
     atom   23 type  4   force =     0.10847894    0.19222643   -0.31277602
     atom   24 type  4   force =    -0.10847894   -0.19222643    0.31277602
     atom   25 type  4   force =    -0.10847894    0.19222643    0.31277602
     atom   26 type  4   force =     0.10847894   -0.19222643   -0.31277602
     atom   27 type  4   force =    -0.10847894   -0.19222643   -0.31277602
     atom   28 type  4   force =     0.10847894    0.19222643    0.31277602

     Total force =     1.250622     Total SCF correction =     0.000353


     Computing stress (Cartesian axis) and pressure


     negative rho (up, down):  0.000E+00 1.638E-03
          total   stress  (Ry/bohr**3)                   (kbar)     P=      294.77
   0.00199161   0.00000000   0.00000000          292.98        0.00        0.00
   0.00000000   0.00129320   0.00000000            0.00      190.24        0.00
   0.00000000   0.00000000   0.00272670            0.00        0.00      401.11


     BFGS Geometry Optimization
     Energy error            =      0.0E+00
     Gradient error          =      3.1E-01
     Cell gradient error     =      2.7E-03


     number of scf cycles    =   1
     number of bfgs steps    =   0

     enthalpy new            =   -2737.8695031345 Ry

     new trust radius        =       0.5000000000 bohr
     new conv_thr            =       0.0000001000 Ry

     new unit-cell volume =   2212.90442 a.u.^3 (   327.91860 Ang^3 )
     density =      3.48863 g/cm^3

CELL_PARAMETERS (angstrom)
   4.950334125   0.000000000   0.000000000
   0.000000000  10.478164045   0.000000000
   0.000000000   0.000000000   6.321881480

ATOMIC_POSITIONS (angstrom)
Fe            0.0000000000        0.0000000000        0.0000000000
Fe            2.4751670623        5.2390820226        0.0000000000
Fe            0.0000000000        0.0000000000        3.1609407402
Fe            2.4751670623        5.2390820226        3.1609407402
Mg            0.0716748029        2.9080469762        4.7414111103
Mg            4.8786593217        7.5701170690        1.5804703701
Mg            2.5468418652        2.3310350464        1.5804703701
Mg            2.4034922594        8.1471289988        4.7414111103
Si            0.2936887733        4.3066481457        1.5804703701
Si            4.6566453514        6.1715158995        4.7414111103
Si            2.7688558356        0.9324338769        4.7414111103
Si            2.1814782890        9.5457301684        1.5804703701
O             1.1626566190        0.9164316304        4.7414111103
O             3.7876775056        9.5617324148        1.5804703701
O             3.6378236814        4.3226503922        1.5804703701
O             1.3125104433        6.1555136530        4.7414111103
O             1.4041681436        0.5599247136        1.5804703701
O             3.5461659810        9.9182393316        4.7414111103
O             3.8793352059        4.6791573090        4.7414111103
O             1.0709989187        5.7990067362        1.5804703701
O             1.1494904533        3.5378550496        2.9518019263
O             3.8008436713        6.9403089957        3.3700795541
O             3.6246575156        1.7012269730        3.3700795541
O             1.3256766090        8.7769370722        2.9518019263
O             3.8008436713        6.9403089957        6.1127426665
O             1.1494904533        3.5378550496        0.2091388139
O             1.3256766090        8.7769370722        0.2091388139
O             3.6246575156        1.7012269730        6.1127426665



     Writing output data file ./out/oliv.save/
     NEW-OLD atomic charge density approx. for the potential

     Check: negative core charge=   -0.000008

     negative rho (up, down):  0.000E+00 1.700E-03
     extrapolated charge  240.77002, renormalised to  216.00000
     Generating pointlists ...

     total cpu time spent up to now is     1031.3 secs

     Self-consistent Calculation

     iteration #  1     ecut=    60.00 Ry     beta= 0.30
     Davidson diagonalization with overlap
     c_bands:  1 eigenvalues not converged
     c_bands:  4 eigenvalues not converged
     c_bands:  4 eigenvalues not converged
     ethr =  1.00E-06,  avg # of iterations = 47.4

     negative rho (up, down):  0.000E+00 2.381E-03

     total cpu time spent up to now is     1394.6 secs

     total energy              =   -2663.04845996 Ry
     estimated scf accuracy    <     117.27206508 Ry

     total magnetization       =     0.87 Bohr mag/cell
     absolute magnetization    =     1.11 Bohr mag/cell

     iteration #  2     ecut=    60.00 Ry     beta= 0.30
     Davidson diagonalization with overlap
     ethr =  1.00E-02,  avg # of iterations =  8.2

     negative rho (up, down):  0.000E+00 7.703E-04

     total cpu time spent up to now is     1481.5 secs

     total energy              =   -2744.52946086 Ry
     estimated scf accuracy    <     228.45144190 Ry

     total magnetization       =     1.50 Bohr mag/cell
     absolute magnetization    =     1.89 Bohr mag/cell

     iteration #  3     ecut=    60.00 Ry     beta= 0.30
     Davidson diagonalization with overlap
     ethr =  1.00E-02,  avg # of iterations =  2.0

     negative rho (up, down):  0.000E+00 5.473E-05

     total cpu time spent up to now is     1523.1 secs

     total energy              =   -2742.19510121 Ry
     estimated scf accuracy    <      92.33928352 Ry

     total magnetization       =     2.55 Bohr mag/cell
     absolute magnetization    =     2.67 Bohr mag/cell

     iteration #  4     ecut=    60.00 Ry     beta= 0.30
     Davidson diagonalization with overlap
     ethr =  1.00E-02,  avg # of iterations =  1.9

     total cpu time spent up to now is     1555.1 secs

     total energy              =   -2729.07966450 Ry
     estimated scf accuracy    <      65.59875129 Ry

     total magnetization       =     1.84 Bohr mag/cell
     absolute magnetization    =     2.06 Bohr mag/cell

     iteration #  5     ecut=    60.00 Ry     beta= 0.30
     Davidson diagonalization with overlap
     ethr =  1.00E-02,  avg # of iterations =  2.2

     total cpu time spent up to now is     1590.1 secs

     total energy              =   -2737.88336627 Ry
     estimated scf accuracy    <       4.89403263 Ry

     total magnetization       =    16.43 Bohr mag/cell
     absolute magnetization    =    16.46 Bohr mag/cell

     iteration #  6     ecut=    60.00 Ry     beta= 0.30
     Davidson diagonalization with overlap
     ethr =  2.27E-03,  avg # of iterations =  2.6

     negative rho (up, down):  0.000E+00 2.228E-04

     total cpu time spent up to now is     1625.9 secs

     total energy              =   -2739.20259154 Ry
     estimated scf accuracy    <       5.43723698 Ry

     total magnetization       =     9.67 Bohr mag/cell
     absolute magnetization    =    10.10 Bohr mag/cell

     iteration #  7     ecut=    60.00 Ry     beta= 0.30
     Davidson diagonalization with overlap
     ethr =  2.27E-03,  avg # of iterations =  2.0

     negative rho (up, down):  0.000E+00 4.117E-05

     total cpu time spent up to now is     1659.0 secs

     total energy              =   -2736.90043731 Ry
     estimated scf accuracy    <      19.87389426 Ry

     total magnetization       =     4.69 Bohr mag/cell
     absolute magnetization    =     5.74 Bohr mag/cell

     iteration #  8     ecut=    60.00 Ry     beta= 0.30
     Davidson diagonalization with overlap
     ethr =  2.27E-03,  avg # of iterations =  2.0

     negative rho (up, down):  0.000E+00 2.422E-04

     total cpu time spent up to now is     1692.5 secs

     total energy              =   -2738.11176973 Ry
     estimated scf accuracy    <       0.94352555 Ry

     total magnetization       =    15.77 Bohr mag/cell
     absolute magnetization    =    15.80 Bohr mag/cell

     iteration #  9     ecut=    60.00 Ry     beta= 0.30
     Davidson diagonalization with overlap
     ethr =  4.37E-04,  avg # of iterations =  9.8

     negative rho (up, down):  0.000E+00 6.030E-04

     total cpu time spent up to now is     1732.4 secs

     total energy              =   -2738.20681237 Ry
     estimated scf accuracy    <       0.41864822 Ry

     total magnetization       =    16.00 Bohr mag/cell
     absolute magnetization    =    16.04 Bohr mag/cell

     iteration # 10     ecut=    60.00 Ry     beta= 0.30
     Davidson diagonalization with overlap
     c_bands:  2 eigenvalues not converged
     ethr =  1.94E-04,  avg # of iterations = 10.5

     negative rho (up, down):  0.000E+00 1.500E-03

     total cpu time spent up to now is     1769.5 secs

     total energy              =   -2738.24671909 Ry
     estimated scf accuracy    <       0.20857264 Ry

     total magnetization       =    16.00 Bohr mag/cell
     absolute magnetization    =    16.06 Bohr mag/cell

     iteration # 11     ecut=    60.00 Ry     beta= 0.30
     Davidson diagonalization with overlap
     ethr =  9.66E-05,  avg # of iterations =  7.9

     negative rho (up, down):  0.000E+00 1.686E-03

     total cpu time spent up to now is     1803.4 secs

     total energy              =   -2738.27332131 Ry
     estimated scf accuracy    <       0.03597124 Ry

     total magnetization       =    16.00 Bohr mag/cell
     absolute magnetization    =    16.09 Bohr mag/cell

     iteration # 12     ecut=    60.00 Ry     beta= 0.30
     Davidson diagonalization with overlap
     c_bands:  1 eigenvalues not converged
     c_bands:  2 eigenvalues not converged
     ethr =  1.67E-05,  avg # of iterations = 12.6

     negative rho (up, down):  0.000E+00 1.838E-03

     total cpu time spent up to now is     1871.5 secs

     total energy              =   -2738.29176324 Ry
     estimated scf accuracy    <       0.11043859 Ry

     total magnetization       =    16.00 Bohr mag/cell
     absolute magnetization    =    16.10 Bohr mag/cell

     iteration # 13     ecut=    60.00 Ry     beta= 0.30
     Davidson diagonalization with overlap
     c_bands:  1 eigenvalues not converged
     ethr =  1.67E-05,  avg # of iterations =  4.2

     negative rho (up, down):  0.000E+00 1.838E-03

     total cpu time spent up to now is     1902.6 secs

     total energy              =   -2738.29005966 Ry
     estimated scf accuracy    <       0.05915572 Ry

     total magnetization       =    16.00 Bohr mag/cell
     absolute magnetization    =    16.11 Bohr mag/cell

     iteration # 14     ecut=    60.00 Ry     beta= 0.30
     Davidson diagonalization with overlap
     ethr =  1.67E-05,  avg # of iterations =  2.0

     negative rho (up, down):  0.000E+00 1.861E-03

     total cpu time spent up to now is     1938.1 secs

     total energy              =   -2738.28983340 Ry
     estimated scf accuracy    <       0.03725698 Ry

     total magnetization       =    16.00 Bohr mag/cell
     absolute magnetization    =    16.11 Bohr mag/cell

     iteration # 15     ecut=    60.00 Ry     beta= 0.30
     Davidson diagonalization with overlap
     ethr =  1.67E-05,  avg # of iterations =  1.4

     negative rho (up, down):  0.000E+00 1.838E-03

     total cpu time spent up to now is     1968.0 secs

     total energy              =   -2738.28575295 Ry
     estimated scf accuracy    <       0.02540986 Ry

     total magnetization       =    16.00 Bohr mag/cell
     absolute magnetization    =    16.12 Bohr mag/cell

     iteration # 16     ecut=    60.00 Ry     beta= 0.30
     Davidson diagonalization with overlap
     ethr =  1.18E-05,  avg # of iterations =  2.0

     negative rho (up, down):  0.000E+00 1.764E-03

     total cpu time spent up to now is     2002.8 secs

     total energy              =   -2738.28484743 Ry
     estimated scf accuracy    <       0.00714820 Ry

     total magnetization       =    16.00 Bohr mag/cell
     absolute magnetization    =    16.12 Bohr mag/cell

     iteration # 17     ecut=    60.00 Ry     beta= 0.30
     Davidson diagonalization with overlap
     c_bands:  1 eigenvalues not converged
     c_bands:  1 eigenvalues not converged
     c_bands:  1 eigenvalues not converged
     ethr =  3.31E-06,  avg # of iterations = 15.8

     negative rho (up, down):  0.000E+00 1.747E-03

     total cpu time spent up to now is     2055.7 secs

     total energy              =   -2738.28667757 Ry
     estimated scf accuracy    <       0.00014875 Ry

     total magnetization       =    16.00 Bohr mag/cell
     absolute magnetization    =    16.12 Bohr mag/cell

     iteration # 18     ecut=    60.00 Ry     beta= 0.30
     Davidson diagonalization with overlap
     ethr =  6.89E-08,  avg # of iterations = 11.0

     negative rho (up, down):  0.000E+00 1.745E-03

     total cpu time spent up to now is     2126.6 secs

     total energy              =   -2738.28692168 Ry
     estimated scf accuracy    <       0.00026245 Ry

     total magnetization       =    16.00 Bohr mag/cell
     absolute magnetization    =    16.12 Bohr mag/cell

     iteration # 19     ecut=    60.00 Ry     beta= 0.30
     Davidson diagonalization with overlap
     ethr =  6.89E-08,  avg # of iterations =  2.0

     negative rho (up, down):  0.000E+00 1.744E-03

     total cpu time spent up to now is     2155.2 secs

     total energy              =   -2738.28695041 Ry
     estimated scf accuracy    <       0.00004197 Ry

     total magnetization       =    16.00 Bohr mag/cell
     absolute magnetization    =    16.12 Bohr mag/cell

     iteration # 20     ecut=    60.00 Ry     beta= 0.30
     Davidson diagonalization with overlap
     ethr =  1.94E-08,  avg # of iterations =  5.0

     negative rho (up, down):  0.000E+00 1.744E-03

     total cpu time spent up to now is     2200.8 secs

     total energy              =   -2738.28697705 Ry
     estimated scf accuracy    <       0.00002654 Ry

     total magnetization       =    16.00 Bohr mag/cell
     absolute magnetization    =    16.12 Bohr mag/cell

     iteration # 21     ecut=    60.00 Ry     beta= 0.30
     Davidson diagonalization with overlap
     ethr =  1.23E-08,  avg # of iterations =  1.5

     negative rho (up, down):  0.000E+00 1.745E-03

     total cpu time spent up to now is     2228.8 secs

     total energy              =   -2738.28698001 Ry
     estimated scf accuracy    <       0.00001355 Ry

     total magnetization       =    16.00 Bohr mag/cell
     absolute magnetization    =    16.12 Bohr mag/cell

     iteration # 22     ecut=    60.00 Ry     beta= 0.30
     Davidson diagonalization with overlap
     ethr =  6.27E-09,  avg # of iterations =  2.0

     negative rho (up, down):  0.000E+00 1.745E-03

     total cpu time spent up to now is     2265.5 secs

     total energy              =   -2738.28698507 Ry
     estimated scf accuracy    <       0.00000518 Ry

     total magnetization       =    16.00 Bohr mag/cell
     absolute magnetization    =    16.12 Bohr mag/cell

     iteration # 23     ecut=    60.00 Ry     beta= 0.30
     Davidson diagonalization with overlap
     ethr =  2.40E-09,  avg # of iterations =  2.8

     negative rho (up, down):  0.000E+00 1.745E-03

     total cpu time spent up to now is     2303.5 secs

     total energy              =   -2738.28698557 Ry
     estimated scf accuracy    <       0.00000371 Ry

     total magnetization       =    16.00 Bohr mag/cell
     absolute magnetization    =    16.12 Bohr mag/cell

     iteration # 24     ecut=    60.00 Ry     beta= 0.30
     Davidson diagonalization with overlap
     ethr =  1.72E-09,  avg # of iterations =  4.2

     negative rho (up, down):  0.000E+00 1.745E-03

     total cpu time spent up to now is     2350.3 secs

     total energy              =   -2738.28698918 Ry
     estimated scf accuracy    <       0.00000155 Ry

     total magnetization       =    16.00 Bohr mag/cell
     absolute magnetization    =    16.12 Bohr mag/cell

     iteration # 25     ecut=    60.00 Ry     beta= 0.30
     Davidson diagonalization with overlap
     ethr =  7.15E-10,  avg # of iterations =  5.1

     negative rho (up, down):  0.000E+00 1.745E-03

     total cpu time spent up to now is     2395.1 secs

     total energy              =   -2738.28699043 Ry
     estimated scf accuracy    <       0.00000150 Ry

     total magnetization       =    16.00 Bohr mag/cell
     absolute magnetization    =    16.12 Bohr mag/cell

     iteration # 26     ecut=    60.00 Ry     beta= 0.30
     Davidson diagonalization with overlap
     ethr =  6.96E-10,  avg # of iterations =  2.0

     negative rho (up, down):  0.000E+00 1.744E-03

     total cpu time spent up to now is     2421.9 secs

     total energy              =   -2738.28699063 Ry
     estimated scf accuracy    <       0.00000083 Ry

     total magnetization       =    16.00 Bohr mag/cell
     absolute magnetization    =    16.12 Bohr mag/cell

     iteration # 27     ecut=    60.00 Ry     beta= 0.30
     Davidson diagonalization with overlap
     ethr =  3.85E-10,  avg # of iterations =  2.5

     negative rho (up, down):  0.000E+00 1.744E-03

     total cpu time spent up to now is     2452.4 secs

     total energy              =   -2738.28699096 Ry
     estimated scf accuracy    <       0.00000019 Ry

     total magnetization       =    16.00 Bohr mag/cell
     absolute magnetization    =    16.12 Bohr mag/cell

     iteration # 28     ecut=    60.00 Ry     beta= 0.30
     Davidson diagonalization with overlap
     ethr =  8.84E-11,  avg # of iterations =  6.5

     negative rho (up, down):  0.000E+00 1.744E-03

     total cpu time spent up to now is     2507.0 secs

     total energy              =   -2738.28699114 Ry
     estimated scf accuracy    <       0.00000037 Ry

     total magnetization       =    16.00 Bohr mag/cell
     absolute magnetization    =    16.12 Bohr mag/cell

     iteration # 29     ecut=    60.00 Ry     beta= 0.30
     Davidson diagonalization with overlap
     ethr =  8.84E-11,  avg # of iterations =  4.4

     negative rho (up, down):  0.000E+00 1.744E-03

     total cpu time spent up to now is     2553.1 secs

     total energy              =   -2738.28699121 Ry
     estimated scf accuracy    <       0.00000018 Ry

     total magnetization       =    16.00 Bohr mag/cell
     absolute magnetization    =    16.12 Bohr mag/cell

     iteration # 30     ecut=    60.00 Ry     beta= 0.30
     Davidson diagonalization with overlap
     ethr =  8.26E-11,  avg # of iterations =  2.5

     negative rho (up, down):  0.000E+00 1.744E-03

     total cpu time spent up to now is     2590.4 secs

     total energy              =   -2738.28699141 Ry
     estimated scf accuracy    <       0.00000010 Ry

     total magnetization       =    16.00 Bohr mag/cell
     absolute magnetization    =    16.12 Bohr mag/cell

     iteration # 31     ecut=    60.00 Ry     beta= 0.30
     Davidson diagonalization with overlap
     ethr =  4.82E-11,  avg # of iterations =  4.4

     negative rho (up, down):  0.000E+00 1.744E-03

     Magnetic moment per site:
     atom:    1    charge:   13.3438    magn:    3.3582    constr:    0.0000
     atom:    2    charge:   13.3438    magn:    3.3582    constr:    0.0000
     atom:    3    charge:   13.3438    magn:    3.3582    constr:    0.0000
     atom:    4    charge:   13.3438    magn:    3.3582    constr:    0.0000
     atom:    5    charge:    8.0963    magn:    0.0012    constr:    0.0000
     atom:    6    charge:    8.0963    magn:    0.0012    constr:    0.0000
     atom:    7    charge:    8.0963    magn:    0.0012    constr:    0.0000
     atom:    8    charge:    8.0963    magn:    0.0012    constr:    0.0000
     atom:    9    charge:    0.3645    magn:    0.0016    constr:    0.0000
     atom:   10    charge:    0.3645    magn:    0.0016    constr:    0.0000
     atom:   11    charge:    0.3645    magn:    0.0016    constr:    0.0000
     atom:   12    charge:    0.3645    magn:    0.0016    constr:    0.0000
     atom:   13    charge:    4.0355    magn:    0.0655    constr:    0.0000
     atom:   14    charge:    4.0355    magn:    0.0655    constr:    0.0000
     atom:   15    charge:    4.0355    magn:    0.0655    constr:    0.0000
     atom:   16    charge:    4.0355    magn:    0.0655    constr:    0.0000
     atom:   17    charge:    4.0153    magn:    0.0724    constr:    0.0000
     atom:   18    charge:    4.0153    magn:    0.0724    constr:    0.0000
     atom:   19    charge:    4.0153    magn:    0.0724    constr:    0.0000
     atom:   20    charge:    4.0153    magn:    0.0724    constr:    0.0000
     atom:   21    charge:    3.9752    magn:    0.0472    constr:    0.0000
     atom:   22    charge:    3.9752    magn:    0.0472    constr:    0.0000
     atom:   23    charge:    3.9752    magn:    0.0472    constr:    0.0000
     atom:   24    charge:    3.9752    magn:    0.0472    constr:    0.0000
     atom:   25    charge:    3.9752    magn:    0.0472    constr:    0.0000
     atom:   26    charge:    3.9752    magn:    0.0472    constr:    0.0000
     atom:   27    charge:    3.9752    magn:    0.0472    constr:    0.0000
     atom:   28    charge:    3.9752    magn:    0.0472    constr:    0.0000

     total cpu time spent up to now is     2638.2 secs

     End of self-consistent calculation

 ------ SPIN UP ------------


          k = 0.0000 0.0000 0.0000 ( 15339 PWs)   bands (ev):

   -80.9909 -80.9909 -80.9900 -80.9899 -67.1354 -67.1354 -67.1354 -67.1354
   -47.4919 -47.4919 -47.4883 -47.4883 -46.9519 -46.9519 -46.9495 -46.9495
   -46.6978 -46.6978 -46.6824 -46.6824 -33.8973 -33.8973 -33.8962 -33.8962
   -33.8825 -33.8825 -33.8824 -33.8824 -33.8532 -33.8532 -33.8515 -33.8515
   -12.7377 -12.6259 -12.3614 -12.3202 -11.4287 -11.4252 -11.4218 -11.3899
   -10.7737 -10.5421 -10.5345 -10.4670 -10.4389 -10.3500 -10.2553 -10.1686
    -0.6382  -0.5600  -0.0366   0.0445   0.5360   0.5756   0.9861   1.2657
     1.3145   1.3355   1.6226   1.7166   2.0062   2.5221   2.5318   2.6247
     2.7535   2.7565   2.7738   2.8149   2.8390   2.8794   2.9557   3.0108
     3.0620   3.0703   3.1232   3.2569   3.4911   3.5362   3.7056   3.7703
     3.8562   3.9810   4.0508   4.1733   4.1880   4.2747   4.4004   4.4183
     4.4637   4.5165   4.7328   4.9870   5.0692   5.0845   5.2133   5.2474
     5.3527   5.3789   5.5001   5.5130   5.5698   5.7093   5.9159   5.9331
     6.1839   6.2487   6.4130   6.4620   6.8769   6.9018   7.0241   7.1441
     7.2664   7.4191   7.5032   7.5960   9.3455  11.3144  11.6777  13.2616
    13.7085  13.7198  13.7276  13.7357  13.8615  14.1182  14.3824  14.4211
    14.5898  14.9827

          k = 0.0000 0.0000-0.3760 ( 15392 PWs)   bands (ev):

   -80.9904 -80.9904 -80.9904 -80.9904 -67.1355 -67.1355 -67.1355 -67.1355
   -47.4901 -47.4901 -47.4901 -47.4901 -46.9507 -46.9507 -46.9506 -46.9506
   -46.6901 -46.6901 -46.6901 -46.6901 -33.8968 -33.8968 -33.8967 -33.8967
   -33.8824 -33.8824 -33.8824 -33.8824 -33.8523 -33.8523 -33.8523 -33.8523
   -12.5355 -12.5355 -12.4880 -12.4880 -11.4356 -11.4356 -11.4162 -11.4162
   -10.6508 -10.6508 -10.5247 -10.5247 -10.3077 -10.3077 -10.2793 -10.2793
    -0.2964  -0.2964  -0.2931  -0.2931   1.0080   1.0080   1.0834   1.0834
     1.5919   1.5919   1.8186   1.8186   2.0433   2.0433   2.3366   2.3366
     2.5327   2.5327   2.5693   2.5693   2.9615   2.9615   3.0354   3.0354
     3.0800   3.0800   3.2302   3.2302   3.6541   3.6541   3.6761   3.6761
     3.7455   3.7455   4.0359   4.0359   4.1590   4.1590   4.2924   4.2924
     4.4276   4.4276   4.6288   4.6288   4.9323   4.9323   5.0826   5.0826
     5.5252   5.5252   5.6622   5.6622   5.8551   5.8551   5.8868   5.8868
     6.2835   6.2835   6.3520   6.3520   6.8916   6.8916   6.8932   6.8932
     7.3964   7.3964   7.4074   7.4074  11.1635  11.1635  12.1403  12.1403
    13.0009  13.0009  14.1454  14.1454  14.5030  14.5030  15.0383  15.0383
    15.3418  15.3421

          k =-0.4802 0.0000 0.0000 ( 15374 PWs)   bands (ev):

   -80.9909 -80.9909 -80.9899 -80.9899 -67.1355 -67.1355 -67.1354 -67.1354
   -47.4919 -47.4919 -47.4883 -47.4883 -46.9518 -46.9518 -46.9495 -46.9495
   -46.6978 -46.6978 -46.6824 -46.6824 -33.8968 -33.8968 -33.8968 -33.8968
   -33.8824 -33.8824 -33.8824 -33.8824 -33.8523 -33.8523 -33.8523 -33.8523
   -12.3954 -12.3954 -12.2428 -12.2428 -11.7263 -11.7263 -11.5520 -11.5520
   -10.7003 -10.7003 -10.5066 -10.5066 -10.3161 -10.3161 -10.2819 -10.2819
    -0.3433  -0.3433  -0.1495  -0.1495   1.2499   1.2499   1.3321   1.3321
     1.5979   1.5979   1.6722   1.6722   1.7319   1.7319   2.1223   2.1223
     2.3252   2.3252   2.3381   2.3381   2.5632   2.5632   2.8245   2.8245
     3.3998   3.3998   3.4114   3.4114   3.5961   3.5961   3.8493   3.8493
     3.9673   3.9673   4.1818   4.1818   4.2874   4.2874   4.4828   4.4828
     4.5005   4.5005   4.9680   4.9680   5.0144   5.0144   5.3995   5.3995
     5.4115   5.4115   5.6210   5.6210   5.6304   5.6304   5.9777   5.9777
     6.1392   6.1392   6.4308   6.4308   6.7402   6.7402   7.0443   7.0443
     7.2417   7.2417   7.6200   7.6200  11.7369  11.7369  12.7477  12.7477
    12.8572  12.8572  13.1860  13.1860  13.3201  13.3201  14.1084  14.1085
    14.6077  14.6086

          k =-0.4802 0.0000-0.3760 ( 15436 PWs)   bands (ev):

   -80.9905 -80.9905 -80.9905 -80.9905 -67.1355 -67.1355 -67.1355 -67.1355
   -47.4901 -47.4901 -47.4901 -47.4901 -46.9507 -46.9507 -46.9506 -46.9506
   -46.6901 -46.6901 -46.6901 -46.6901 -33.8968 -33.8968 -33.8968 -33.8968
   -33.8824 -33.8824 -33.8824 -33.8824 -33.8523 -33.8523 -33.8523 -33.8523
   -12.3096 -12.3096 -12.3067 -12.3067 -11.6809 -11.6809 -11.6203 -11.6203
   -10.6411 -10.6411 -10.5479 -10.5479 -10.3243 -10.3243 -10.3116 -10.3116
    -0.1853  -0.1853  -0.1692  -0.1692   1.2774   1.2774   1.5639   1.5639
     1.6308   1.6308   1.6452   1.6452   1.8626   1.8626   2.0960   2.0960
     2.3657   2.3657   2.4325   2.4325   2.7973   2.7973   2.8204   2.8204
     3.0973   3.0973   3.1934   3.1934   3.5580   3.5580   3.7544   3.7544
     4.0082   4.0082   4.0781   4.0781   4.0920   4.0920   4.3439   4.3439
     4.6190   4.6190   4.7402   4.7402   4.7928   4.7928   5.0957   5.0957
     5.5103   5.5103   5.5455   5.5455   5.9386   5.9386   5.9774   5.9774
     6.2708   6.2708   6.3092   6.3092   6.8117   6.8117   6.8514   6.8514
     7.4122   7.4122   7.4268   7.4268  12.6748  12.6748  12.7483  12.7483
    13.3978  13.3978  13.5404  13.5404  13.7551  13.7551  13.9998  13.9998
    14.6446  14.6450

 ------ SPIN DOWN ----------


          k = 0.0000 0.0000 0.0000 ( 15339 PWs)   bands (ev):

   -76.8563 -76.8561 -76.8552 -76.8552 -67.1345 -67.1345 -67.1345 -67.1345
   -43.1596 -43.1596 -43.1546 -43.1546 -42.9555 -42.9555 -42.9484 -42.9484
   -42.9164 -42.9164 -42.9014 -42.9014 -33.8966 -33.8966 -33.8955 -33.8955
   -33.8813 -33.8813 -33.8811 -33.8811 -33.8519 -33.8519 -33.8502 -33.8502
   -12.6124 -12.4970 -12.2398 -12.1963 -11.2929 -11.2819 -11.2793 -11.2516
   -10.6685 -10.4276 -10.4221 -10.3506 -10.3331 -10.2504 -10.1479 -10.0677
    -0.4387  -0.3735   0.0670   0.1441   0.6772   0.7682   1.2714   1.3888
     1.4201   1.5866   1.9199   2.0102   2.0831   2.7029   2.7578   2.8358
     2.9359   3.0067   3.1886   3.2037   3.2924   3.3679   3.3730   3.4054
     3.4451   3.4925   3.5855   3.6145   3.6925   4.0008   4.0102   4.0661
     4.3396   4.4004   4.4211   4.4270   4.4399   4.5649   4.6143   4.6779
     4.8401   5.1341   5.1579   5.1924   5.2381   5.3040   5.3136   5.3691
     8.2721   8.3239   8.5709   8.6317   8.8440   8.8840   9.1012   9.1789
     9.2878   9.3527   9.3709   9.4161   9.6966  10.3037  10.3531  10.3856
    10.3870  10.5043  10.6168  10.6745  10.7094  11.7857  11.8191  13.3702
    13.8255  13.8541  13.9372  13.9897  14.0805  14.2327  14.5246  14.6561
    14.7701  15.1505

          k = 0.0000 0.0000-0.3760 ( 15392 PWs)   bands (ev):

   -76.8558 -76.8558 -76.8558 -76.8558 -67.1345 -67.1345 -67.1345 -67.1345
   -43.1570 -43.1570 -43.1570 -43.1570 -42.9515 -42.9515 -42.9515 -42.9515
   -42.9093 -42.9093 -42.9093 -42.9093 -33.8961 -33.8961 -33.8961 -33.8961
   -33.8812 -33.8812 -33.8812 -33.8812 -33.8510 -33.8510 -33.8510 -33.8510
   -12.4109 -12.4109 -12.3623 -12.3623 -11.2965 -11.2965 -11.2749 -11.2749
   -10.5457 -10.5457 -10.4097 -10.4097 -10.2060 -10.2060 -10.1711 -10.1711
    -0.1386  -0.1386  -0.1302  -0.1302   1.1604   1.1604   1.2058   1.2058
     1.7917   1.7917   2.0609   2.0609   2.3022   2.3022   2.6194   2.6194
     2.9072   2.9072   3.1214   3.1214   3.2528   3.2528   3.3216   3.3216
     3.4332   3.4332   3.4804   3.4804   3.8847   3.8847   4.0138   4.0138
     4.2249   4.2249   4.2816   4.2816   4.5801   4.5801   4.6485   4.6485
     4.7576   4.7576   4.9742   4.9742   5.2545   5.2545   5.3327   5.3327
     8.6983   8.6983   8.7314   8.7314   8.8704   8.8704   8.8916   8.8916
     9.2632   9.2632   9.3503   9.3503  10.2252  10.2252  10.2715  10.2715
    10.6307  10.6307  10.6724  10.6724  11.4335  11.4335  12.4328  12.4328
    13.1662  13.1662  14.3245  14.3245  14.8317  14.8317  15.2506  15.2506
    15.4575  15.4578

          k =-0.4802 0.0000 0.0000 ( 15374 PWs)   bands (ev):

   -76.8563 -76.8563 -76.8552 -76.8552 -67.1345 -67.1345 -67.1345 -67.1345
   -43.1595 -43.1595 -43.1546 -43.1546 -42.9555 -42.9555 -42.9484 -42.9484
   -42.9164 -42.9164 -42.9013 -42.9013 -33.8961 -33.8961 -33.8961 -33.8961
   -33.8812 -33.8812 -33.8812 -33.8812 -33.8510 -33.8510 -33.8510 -33.8510
   -12.2738 -12.2738 -12.1107 -12.1107 -11.5873 -11.5873 -11.4204 -11.4204
   -10.5849 -10.5849 -10.3931 -10.3931 -10.2094 -10.2094 -10.1818 -10.1818
    -0.1666  -0.1666  -0.0663  -0.0663   1.4930   1.4930   1.5006   1.5006
     1.8143   1.8143   1.8213   1.8213   2.0637   2.0637   2.3534   2.3534
     2.5784   2.5784   2.7495   2.7495   2.7904   2.7904   3.1433   3.1433
     3.6935   3.6935   3.8163   3.8163   4.1991   4.1991   4.2683   4.2683
     4.3357   4.3357   4.3961   4.3961   4.7190   4.7190   4.8222   4.8222
     4.9124   4.9124   5.1871   5.1871   5.2144   5.2144   5.5791   5.5791
     8.3643   8.3643   8.5504   8.5504   8.8691   8.8691   9.1675   9.1675
     9.3811   9.3811   9.3929   9.3929  10.0938  10.0938  10.2976  10.2976
    10.5396  10.5396  10.7645  10.7645  11.8770  11.8770  12.9231  12.9231
    13.0902  13.0902  13.3250  13.3250  13.6767  13.6767  14.3748  14.3748
    14.7746  14.7746

          k =-0.4802 0.0000-0.3760 ( 15436 PWs)   bands (ev):

   -76.8558 -76.8558 -76.8558 -76.8558 -67.1345 -67.1345 -67.1345 -67.1345
   -43.1570 -43.1570 -43.1570 -43.1570 -42.9515 -42.9515 -42.9515 -42.9515
   -42.9093 -42.9093 -42.9093 -42.9093 -33.8961 -33.8961 -33.8961 -33.8961
   -33.8812 -33.8812 -33.8812 -33.8812 -33.8510 -33.8510 -33.8510 -33.8510
   -12.1830 -12.1830 -12.1806 -12.1806 -11.5456 -11.5456 -11.4833 -11.4833
   -10.5281 -10.5281 -10.4323 -10.4323 -10.2212 -10.2212 -10.2086 -10.2086
    -0.0506  -0.0506  -0.0254  -0.0254   1.5644   1.5644   1.8417   1.8417
     1.8915   1.8915   1.8947   1.8947   2.0159   2.0159   2.2423   2.2423
     2.6330   2.6330   2.6690   2.6690   3.0028   3.0028   3.0613   3.0613
     3.3486   3.3486   3.5552   3.5552   4.1122   4.1122   4.1299   4.1299
     4.2905   4.2905   4.5812   4.5812   4.5845   4.5845   4.8148   4.8148
     4.9285   4.9285   5.0484   5.0484   5.1964   5.1964   5.3228   5.3228
     8.6756   8.6756   8.7028   8.7028   8.9168   8.9168   8.9303   8.9303
     9.2977   9.2977   9.3160   9.3160  10.0759  10.0759  10.0934  10.0934
    10.5552  10.5552  10.5684  10.5684  12.9271  12.9271  13.0098  13.0098
    13.5934  13.5934  13.8356  13.8356  14.2043  14.2043  14.3280  14.3280
    14.8280  14.8280

     the Fermi energy is     8.7836 ev

!    total energy              =   -2738.28699154 Ry

     total all-electron energy =    -16515.487902 Ry
     estimated scf accuracy    <       0.00000004 Ry
     smearing contrib. (-TS)   =      -0.00886464 Ry
     internal energy E=F+TS    =   -2738.27812690 Ry

     The total energy is F=E-TS. E is the sum of the following terms:
     one-electron contribution =   -1306.91250552 Ry
     hartree contribution      =     746.94410048 Ry
     xc contribution           =    -326.92280663 Ry
     ewald contribution        =   -1164.92673299 Ry
     one-center paw contrib.   =    -686.46018224 Ry

     total magnetization       =    16.00 Bohr mag/cell
     absolute magnetization    =    16.12 Bohr mag/cell

     convergence has been achieved in  31 iterations

     negative rho (up, down):  0.000E+00 1.744E-03

     Forces acting on atoms (cartesian axes, Ry/au):

     atom    1 type  1   force =     0.00000000    0.00000000    0.00000000
     atom    2 type  1   force =    -0.00000000    0.00000000    0.00000000
     atom    3 type  1   force =     0.00000000    0.00000000    0.00000000
     atom    4 type  1   force =     0.00000000   -0.00000000    0.00000000
     atom    5 type  2   force =    -0.00617725   -0.00199458   -0.00000000
     atom    6 type  2   force =     0.00617725    0.00199458    0.00000000
     atom    7 type  2   force =    -0.00617725    0.00199458    0.00000000
     atom    8 type  2   force =     0.00617725   -0.00199458   -0.00000000
     atom    9 type  3   force =     0.14762629   -0.05451813    0.00000000
     atom   10 type  3   force =    -0.14762629    0.05451813    0.00000000
     atom   11 type  3   force =     0.14762629    0.05451813   -0.00000000
     atom   12 type  3   force =    -0.14762629   -0.05451813   -0.00000000
     atom   13 type  4   force =    -0.01492027    0.02201891    0.00000000
     atom   14 type  4   force =     0.01492027   -0.02201891    0.00000000
     atom   15 type  4   force =    -0.01492027   -0.02201891   -0.00000000
     atom   16 type  4   force =     0.01492027    0.02201891   -0.00000000
     atom   17 type  4   force =     0.03049046    0.00085988   -0.00000000
     atom   18 type  4   force =    -0.03049046   -0.00085988   -0.00000000
     atom   19 type  4   force =     0.03049046   -0.00085988    0.00000000
     atom   20 type  4   force =    -0.03049046    0.00085988    0.00000000
     atom   21 type  4   force =    -0.04987148    0.02625013   -0.05417615
     atom   22 type  4   force =     0.04987148   -0.02625013    0.05417615
     atom   23 type  4   force =    -0.04987148   -0.02625013    0.05417615
     atom   24 type  4   force =     0.04987148    0.02625013   -0.05417615
     atom   25 type  4   force =     0.04987148   -0.02625013   -0.05417615
     atom   26 type  4   force =    -0.04987148    0.02625013    0.05417615
     atom   27 type  4   force =     0.04987148    0.02625013    0.05417615
     atom   28 type  4   force =    -0.04987148   -0.02625013   -0.05417615

     Total force =     0.393285     Total SCF correction =     0.000079


     Computing stress (Cartesian axis) and pressure


     negative rho (up, down):  0.000E+00 1.744E-03
          total   stress  (Ry/bohr**3)                   (kbar)     P=     -104.23
  -0.00052036   0.00000000   0.00000000          -76.55        0.00        0.00
   0.00000000  -0.00046925   0.00000000            0.00      -69.03        0.00
   0.00000000   0.00000000  -0.00113598            0.00        0.00     -167.11

     Energy error            =      4.2E-01
     Gradient error          =      1.5E-01
     Cell gradient error     =      1.1E-03


     number of scf cycles    =   2
     number of bfgs steps    =   1

     enthalpy old            =   -2737.8695031345 Ry
     enthalpy new            =   -2738.2869915436 Ry

     CASE: enthalpy_new < enthalpy_old

     new trust radius        =       0.1723345141 bohr
     new conv_thr            =       0.0000001000 Ry

     new unit-cell volume =   2139.37205 a.u.^3 (   317.02223 Ang^3 )
     density =      3.60853 g/cm^3

CELL_PARAMETERS (angstrom)
   4.913408689   0.000000000   0.000000000
   0.000000000  10.396552005   0.000000000
   0.000000000   0.000000000   6.206081818

ATOMIC_POSITIONS (angstrom)
Fe            0.0000000000        0.0000000000        0.0000000000
Fe            2.4567043446        5.1982760023        0.0000000000
Fe            0.0000000000        0.0000000000        3.1030409089
Fe            2.4567043446        5.1982760023        3.1030409089
Mg            0.0682739701        2.8851493988        4.6545613633
Mg            4.8451347191        7.5114026059        1.5515204544
Mg            2.5249783146        2.3131266035        1.5515204544
Mg            2.3884303745        8.0834254011        4.6545613633
Si            0.3535406107        4.2577923858        1.5515204544
Si            4.5598680784        6.1387596188        4.6545613633
Si            2.8102449553        0.9404836165        4.6545613633
Si            2.1031637338        9.4560683882        1.5515204544
O             1.1427600073        0.9206699427        4.6545613633
O             3.7706486818        9.4758820619        1.5515204544
O             3.5994643518        4.2776060596        1.5515204544
O             1.3139443373        6.1189459451        4.6545613633
O             1.4085084545        0.5598832909        1.5515204544
O             3.5049002347        9.8366687138        4.6545613633
O             3.8652127990        4.6383927115        4.6545613633
O             1.0481958901        5.7581592932        1.5515204544
O             1.1225152620        3.5147477397        2.8845672876
O             3.7908934272        6.8818042650        3.3215145301
O             3.5792196065        1.6835282626        3.3215145301
O             1.3341890826        8.7130237420        2.8845672876
O             3.7908934272        6.8818042650        5.9876081965
O             1.1225152620        3.5147477397        0.2184736213
O             1.3341890826        8.7130237420        0.2184736213
O             3.5792196065        1.6835282626        5.9876081965



     Writing output data file ./out/oliv.save/
     NEW-OLD atomic charge density approx. for the potential

     Check: negative core charge=   -0.000007

     negative rho (up, down):  0.000E+00 1.735E-03
     extrapolated charge  208.57613, renormalised to  216.00000
     Generating pointlists ...

     total cpu time spent up to now is     2681.3 secs

     Self-consistent Calculation

     iteration #  1     ecut=    60.00 Ry     beta= 0.30
     Davidson diagonalization with overlap
     c_bands:  3 eigenvalues not converged
     c_bands:  4 eigenvalues not converged
     c_bands:  4 eigenvalues not converged
     c_bands:  4 eigenvalues not converged
     c_bands:  4 eigenvalues not converged
     ethr =  1.00E-06,  avg # of iterations = 27.4

     total cpu time spent up to now is     2889.6 secs

     total energy              =   -2720.24603272 Ry
     estimated scf accuracy    <      30.52755053 Ry

     total magnetization       =     5.76 Bohr mag/cell
     absolute magnetization    =     6.16 Bohr mag/cell

     iteration #  2     ecut=    60.00 Ry     beta= 0.30
     Davidson diagonalization with overlap
     ethr =  1.00E-02,  avg # of iterations =  9.5

     total cpu time spent up to now is     2937.3 secs

     total energy              =   -2734.57254155 Ry
     estimated scf accuracy    <     144.43171840 Ry

     total magnetization       =     0.56 Bohr mag/cell
     absolute magnetization    =     0.87 Bohr mag/cell

     iteration #  3     ecut=    60.00 Ry     beta= 0.30
     Davidson diagonalization with overlap
     ethr =  1.00E-02,  avg # of iterations =  5.0

     negative rho (up, down):  0.000E+00 3.789E-04

     total cpu time spent up to now is     2976.0 secs

     total energy              =   -2734.83282617 Ry
     estimated scf accuracy    <      28.16581881 Ry

     total magnetization       =     9.83 Bohr mag/cell
     absolute magnetization    =     9.97 Bohr mag/cell

     iteration #  4     ecut=    60.00 Ry     beta= 0.30
     Davidson diagonalization with overlap
     ethr =  1.00E-02,  avg # of iterations =  5.5

     negative rho (up, down):  0.000E+00 3.261E-04

     total cpu time spent up to now is     3012.6 secs

     total energy              =   -2737.20967420 Ry
     estimated scf accuracy    <       2.23575258 Ry

     total magnetization       =     6.00 Bohr mag/cell
     absolute magnetization    =     6.55 Bohr mag/cell

     iteration #  5     ecut=    60.00 Ry     beta= 0.30
     Davidson diagonalization with overlap
     ethr =  1.04E-03,  avg # of iterations = 13.5

     negative rho (up, down):  0.000E+00 5.246E-04

     total cpu time spent up to now is     3077.5 secs

     total energy              =   -2738.39930775 Ry
     estimated scf accuracy    <       0.35762526 Ry

     total magnetization       =    16.00 Bohr mag/cell
     absolute magnetization    =    16.07 Bohr mag/cell

     iteration #  6     ecut=    60.00 Ry     beta= 0.30
     Davidson diagonalization with overlap
     ethr =  1.66E-04,  avg # of iterations =  5.2

     negative rho (up, down):  0.000E+00 8.088E-04

     total cpu time spent up to now is     3119.8 secs

     total energy              =   -2738.50675699 Ry
     estimated scf accuracy    <       0.52690448 Ry

     total magnetization       =    16.25 Bohr mag/cell
     absolute magnetization    =    16.32 Bohr mag/cell

     iteration #  7     ecut=    60.00 Ry     beta= 0.30
     Davidson diagonalization with overlap
     ethr =  1.66E-04,  avg # of iterations =  1.8

     negative rho (up, down):  0.000E+00 1.049E-03

     total cpu time spent up to now is     3150.4 secs

     total energy              =   -2738.48052261 Ry
     estimated scf accuracy    <       0.78765569 Ry

     total magnetization       =    16.50 Bohr mag/cell
     absolute magnetization    =    16.58 Bohr mag/cell

     iteration #  8     ecut=    60.00 Ry     beta= 0.30
     Davidson diagonalization with overlap
     ethr =  1.66E-04,  avg # of iterations =  1.1

     negative rho (up, down):  0.000E+00 1.370E-03

     total cpu time spent up to now is     3179.3 secs

     total energy              =   -2738.44410426 Ry
     estimated scf accuracy    <       0.55994466 Ry

     total magnetization       =    16.50 Bohr mag/cell
     absolute magnetization    =    16.57 Bohr mag/cell

     iteration #  9     ecut=    60.00 Ry     beta= 0.30
     Davidson diagonalization with overlap
     ethr =  1.66E-04,  avg # of iterations =  1.5

     negative rho (up, down):  0.000E+00 1.344E-03

     total cpu time spent up to now is     3210.1 secs

     total energy              =   -2738.43375093 Ry
     estimated scf accuracy    <       0.29907624 Ry

     total magnetization       =    16.35 Bohr mag/cell
     absolute magnetization    =    16.44 Bohr mag/cell

     iteration # 10     ecut=    60.00 Ry     beta= 0.30
     Davidson diagonalization with overlap
     ethr =  1.38E-04,  avg # of iterations =  1.0

     negative rho (up, down):  0.000E+00 1.696E-03

     total cpu time spent up to now is     3238.5 secs

     total energy              =   -2738.39571461 Ry
     estimated scf accuracy    <       0.19175264 Ry

     total magnetization       =    16.08 Bohr mag/cell
     absolute magnetization    =    16.20 Bohr mag/cell

     iteration # 11     ecut=    60.00 Ry     beta= 0.30
     Davidson diagonalization with overlap
     ethr =  8.88E-05,  avg # of iterations =  2.0

     negative rho (up, down):  0.000E+00 1.576E-03

     total cpu time spent up to now is     3272.3 secs

     total energy              =   -2738.40000791 Ry
     estimated scf accuracy    <       0.03854184 Ry

     total magnetization       =    16.00 Bohr mag/cell
     absolute magnetization    =    16.13 Bohr mag/cell

     iteration # 12     ecut=    60.00 Ry     beta= 0.30
     Davidson diagonalization with overlap
     c_bands:  4 eigenvalues not converged
     ethr =  1.78E-05,  avg # of iterations = 10.2

     negative rho (up, down):  0.000E+00 1.570E-03

     total cpu time spent up to now is     3311.2 secs

     total energy              =   -2738.40326319 Ry
     estimated scf accuracy    <       0.00743820 Ry

     total magnetization       =    16.00 Bohr mag/cell
     absolute magnetization    =    16.11 Bohr mag/cell

     iteration # 13     ecut=    60.00 Ry     beta= 0.30
     Davidson diagonalization with overlap
     c_bands:  1 eigenvalues not converged
     c_bands:  2 eigenvalues not converged
     c_bands:  2 eigenvalues not converged
     ethr =  3.44E-06,  avg # of iterations = 14.4

     negative rho (up, down):  0.000E+00 1.666E-03

     total cpu time spent up to now is     3358.8 secs

     total energy              =   -2738.40736544 Ry
     estimated scf accuracy    <       0.00445045 Ry

     total magnetization       =    16.00 Bohr mag/cell
     absolute magnetization    =    16.11 Bohr mag/cell

     iteration # 14     ecut=    60.00 Ry     beta= 0.30
     Davidson diagonalization with overlap
     c_bands:  1 eigenvalues not converged
     ethr =  2.06E-06,  avg # of iterations =  4.2

     negative rho (up, down):  0.000E+00 1.701E-03

     total cpu time spent up to now is     3387.2 secs

     total energy              =   -2738.40737623 Ry
     estimated scf accuracy    <       0.00194217 Ry

     total magnetization       =    16.00 Bohr mag/cell
     absolute magnetization    =    16.12 Bohr mag/cell

     iteration # 15     ecut=    60.00 Ry     beta= 0.30
     Davidson diagonalization with overlap
     ethr =  8.99E-07,  avg # of iterations =  3.6

     negative rho (up, down):  0.000E+00 1.707E-03

     total cpu time spent up to now is     3419.3 secs

     total energy              =   -2738.40751637 Ry
     estimated scf accuracy    <       0.00092696 Ry

     total magnetization       =    16.00 Bohr mag/cell
     absolute magnetization    =    16.12 Bohr mag/cell

     iteration # 16     ecut=    60.00 Ry     beta= 0.30
     Davidson diagonalization with overlap
     ethr =  4.29E-07,  avg # of iterations =  5.2

     negative rho (up, down):  0.000E+00 1.703E-03

     total cpu time spent up to now is     3456.1 secs

     total energy              =   -2738.40771703 Ry
     estimated scf accuracy    <       0.00011315 Ry

     total magnetization       =    16.00 Bohr mag/cell
     absolute magnetization    =    16.12 Bohr mag/cell

     iteration # 17     ecut=    60.00 Ry     beta= 0.30
     Davidson diagonalization with overlap
     ethr =  5.24E-08,  avg # of iterations =  9.4

     negative rho (up, down):  0.000E+00 1.711E-03

     total cpu time spent up to now is     3512.3 secs

     total energy              =   -2738.40775577 Ry
     estimated scf accuracy    <       0.00013086 Ry

     total magnetization       =    16.00 Bohr mag/cell
     absolute magnetization    =    16.12 Bohr mag/cell

     iteration # 18     ecut=    60.00 Ry     beta= 0.30
     Davidson diagonalization with overlap
     ethr =  5.24E-08,  avg # of iterations =  4.8

     negative rho (up, down):  0.000E+00 1.708E-03

     total cpu time spent up to now is     3556.5 secs

     total energy              =   -2738.40779212 Ry
     estimated scf accuracy    <       0.00005725 Ry

     total magnetization       =    16.00 Bohr mag/cell
     absolute magnetization    =    16.12 Bohr mag/cell

     iteration # 19     ecut=    60.00 Ry     beta= 0.30
     Davidson diagonalization with overlap
     ethr =  2.65E-08,  avg # of iterations =  2.5

     negative rho (up, down):  0.000E+00 1.708E-03

     total cpu time spent up to now is     3588.0 secs

     total energy              =   -2738.40779745 Ry
     estimated scf accuracy    <       0.00001916 Ry

     total magnetization       =    16.00 Bohr mag/cell
     absolute magnetization    =    16.12 Bohr mag/cell

     iteration # 20     ecut=    60.00 Ry     beta= 0.30
     Davidson diagonalization with overlap
     ethr =  8.87E-09,  avg # of iterations =  4.6

     negative rho (up, down):  0.000E+00 1.708E-03

     total cpu time spent up to now is     3622.4 secs

     total energy              =   -2738.40780472 Ry
     estimated scf accuracy    <       0.00000674 Ry

     total magnetization       =    16.00 Bohr mag/cell
     absolute magnetization    =    16.12 Bohr mag/cell

     iteration # 21     ecut=    60.00 Ry     beta= 0.30
     Davidson diagonalization with overlap
     ethr =  3.12E-09,  avg # of iterations =  2.0

     negative rho (up, down):  0.000E+00 1.709E-03

     total cpu time spent up to now is     3653.4 secs

     total energy              =   -2738.40780656 Ry
     estimated scf accuracy    <       0.00000429 Ry

     total magnetization       =    16.00 Bohr mag/cell
     absolute magnetization    =    16.12 Bohr mag/cell

     iteration # 22     ecut=    60.00 Ry     beta= 0.30
     Davidson diagonalization with overlap
     ethr =  1.99E-09,  avg # of iterations =  4.5

     negative rho (up, down):  0.000E+00 1.709E-03

     total cpu time spent up to now is     3691.4 secs

     total energy              =   -2738.40780800 Ry
     estimated scf accuracy    <       0.00000347 Ry

     total magnetization       =    16.00 Bohr mag/cell
     absolute magnetization    =    16.12 Bohr mag/cell

     iteration # 23     ecut=    60.00 Ry     beta= 0.30
     Davidson diagonalization with overlap
     ethr =  1.61E-09,  avg # of iterations =  2.0

     negative rho (up, down):  0.000E+00 1.709E-03

     total cpu time spent up to now is     3721.1 secs

     total energy              =   -2738.40780834 Ry
     estimated scf accuracy    <       0.00000105 Ry

     total magnetization       =    16.00 Bohr mag/cell
     absolute magnetization    =    16.12 Bohr mag/cell

     iteration # 24     ecut=    60.00 Ry     beta= 0.30
     Davidson diagonalization with overlap
     ethr =  4.88E-10,  avg # of iterations =  5.9

     negative rho (up, down):  0.000E+00 1.709E-03

     total cpu time spent up to now is     3772.4 secs

     total energy              =   -2738.40780964 Ry
     estimated scf accuracy    <       0.00000107 Ry

     total magnetization       =    16.00 Bohr mag/cell
     absolute magnetization    =    16.12 Bohr mag/cell

     iteration # 25     ecut=    60.00 Ry     beta= 0.30
     Davidson diagonalization with overlap
     ethr =  4.88E-10,  avg # of iterations =  5.2

     negative rho (up, down):  0.000E+00 1.709E-03

     total cpu time spent up to now is     3829.3 secs

     total energy              =   -2738.40780970 Ry
     estimated scf accuracy    <       0.00000177 Ry

     total magnetization       =    16.00 Bohr mag/cell
     absolute magnetization    =    16.12 Bohr mag/cell

     iteration # 26     ecut=    60.00 Ry     beta= 0.30
     Davidson diagonalization with overlap
     ethr =  4.88E-10,  avg # of iterations =  4.4

     negative rho (up, down):  0.000E+00 1.709E-03

     Magnetic moment per site:
     atom:    1    charge:   13.3556    magn:    3.3522    constr:    0.0000
     atom:    2    charge:   13.3556    magn:    3.3522    constr:    0.0000
     atom:    3    charge:   13.3556    magn:    3.3522    constr:    0.0000
     atom:    4    charge:   13.3556    magn:    3.3522    constr:    0.0000
     atom:    5    charge:    8.1065    magn:    0.0013    constr:    0.0000
     atom:    6    charge:    8.1065    magn:    0.0013    constr:    0.0000
     atom:    7    charge:    8.1065    magn:    0.0013    constr:    0.0000
     atom:    8    charge:    8.1065    magn:    0.0013    constr:    0.0000
     atom:    9    charge:    0.3735    magn:    0.0016    constr:    0.0000
     atom:   10    charge:    0.3735    magn:    0.0016    constr:    0.0000
     atom:   11    charge:    0.3735    magn:    0.0016    constr:    0.0000
     atom:   12    charge:    0.3735    magn:    0.0016    constr:    0.0000
     atom:   13    charge:    4.0195    magn:    0.0750    constr:    0.0000
     atom:   14    charge:    4.0195    magn:    0.0750    constr:    0.0000
     atom:   15    charge:    4.0195    magn:    0.0750    constr:    0.0000
     atom:   16    charge:    4.0195    magn:    0.0750    constr:    0.0000
     atom:   17    charge:    4.0336    magn:    0.0754    constr:    0.0000
     atom:   18    charge:    4.0336    magn:    0.0754    constr:    0.0000
     atom:   19    charge:    4.0336    magn:    0.0754    constr:    0.0000
     atom:   20    charge:    4.0336    magn:    0.0754    constr:    0.0000
     atom:   21    charge:    4.0055    magn:    0.0460    constr:    0.0000
     atom:   22    charge:    4.0055    magn:    0.0460    constr:    0.0000
     atom:   23    charge:    4.0055    magn:    0.0460    constr:    0.0000
     atom:   24    charge:    4.0055    magn:    0.0460    constr:    0.0000
     atom:   25    charge:    4.0055    magn:    0.0460    constr:    0.0000
     atom:   26    charge:    4.0055    magn:    0.0460    constr:    0.0000
     atom:   27    charge:    4.0055    magn:    0.0460    constr:    0.0000
     atom:   28    charge:    4.0055    magn:    0.0460    constr:    0.0000

     total cpu time spent up to now is     3873.2 secs

     End of self-consistent calculation

 ------ SPIN UP ------------


          k = 0.0000 0.0000 0.0000 ( 15339 PWs)   bands (ev):

   -80.5331 -80.5330 -80.5317 -80.5317 -66.6638 -66.6638 -66.6638 -66.6638
   -47.1193 -47.1193 -47.1142 -47.1142 -46.4382 -46.4382 -46.4358 -46.4358
   -46.2202 -46.2202 -46.2004 -46.2004 -33.4308 -33.4308 -33.4294 -33.4294
   -33.4057 -33.4057 -33.4055 -33.4055 -33.3858 -33.3858 -33.3836 -33.3836
   -12.4298 -12.2675 -11.9284 -11.8635 -11.0290 -11.0127 -10.9629 -10.9356
   -10.6882 -10.4995 -10.4636 -10.4249 -10.4132 -10.3215 -10.2349 -10.1455
    -0.2356  -0.1556   0.3856   0.4837   0.6798   0.7037   1.3139   1.5525
     1.5579   1.6084   1.8861   2.0448   2.1246   2.7279   2.8483   2.8703
     3.0411   3.0542   3.1446   3.1613   3.1707   3.2598   3.3013   3.3503
     3.3635   3.4172   3.5455   3.6934   3.7067   3.7736   3.9072   3.9894
     4.1226   4.2178   4.2310   4.4321   4.4716   4.6610   4.6739   4.6999
     4.7706   4.7751   5.0263   5.2191   5.3147   5.3411   5.4057   5.4294
     5.7024   5.7326   5.9264   5.9613   6.0009   6.1217   6.3701   6.3705
     6.6965   6.7636   6.8759   6.9201   7.4620   7.4922   7.5622   7.7241
     7.7321   7.8930   7.9392   8.0023  10.0257  11.9584  12.4137  13.8635
    14.3232  14.5090  14.5150  14.5534  14.6100  14.7381  15.0419  15.0662
    15.2719  15.8316

          k = 0.0000 0.0000-0.3830 ( 15392 PWs)   bands (ev):

   -80.5324 -80.5324 -80.5324 -80.5324 -66.6638 -66.6638 -66.6638 -66.6638
   -47.1167 -47.1167 -47.1167 -47.1167 -46.4370 -46.4370 -46.4370 -46.4370
   -46.2104 -46.2104 -46.2103 -46.2103 -33.4301 -33.4301 -33.4301 -33.4301
   -33.4056 -33.4056 -33.4056 -33.4056 -33.3847 -33.3847 -33.3847 -33.3847
   -12.1705 -12.1705 -12.0911 -12.0911 -10.9903 -10.9903 -10.9818 -10.9818
   -10.6086 -10.6086 -10.4607 -10.4607 -10.2856 -10.2856 -10.2425 -10.2425
     0.1241   0.1241   0.1418   0.1418   1.1807   1.1807   1.2612   1.2612
     1.8760   1.8760   2.1388   2.1388   2.4124   2.4124   2.6452   2.6452
     2.7925   2.7925   2.9043   2.9043   3.2140   3.2140   3.4024   3.4024
     3.4544   3.4544   3.4871   3.4871   3.8277   3.8277   3.8655   3.8655
     4.0732   4.0732   4.3350   4.3350   4.4144   4.4144   4.5716   4.5716
     4.7004   4.7004   4.8545   4.8545   5.2261   5.2261   5.3470   5.3470
     5.9097   5.9097   6.0234   6.0234   6.2978   6.2978   6.3467   6.3467
     6.7652   6.7652   6.8335   6.8335   7.4701   7.4701   7.4717   7.4717
     7.8212   7.8212   7.8292   7.8292  11.8529  11.8529  12.8675  12.8675
    13.6719  13.6719  14.8839  14.8839  15.1715  15.1715  15.8500  15.8506
    16.0280  16.0856

          k =-0.4838 0.0000 0.0000 ( 15374 PWs)   bands (ev):

   -80.5331 -80.5331 -80.5317 -80.5317 -66.6638 -66.6638 -66.6638 -66.6638
   -47.1193 -47.1193 -47.1142 -47.1142 -46.4382 -46.4382 -46.4358 -46.4358
   -46.2202 -46.2202 -46.2004 -46.2004 -33.4301 -33.4301 -33.4301 -33.4301
   -33.4056 -33.4056 -33.4056 -33.4056 -33.3847 -33.3847 -33.3847 -33.3847
   -12.0303 -12.0303 -11.7689 -11.7689 -11.3770 -11.3770 -11.1053 -11.1053
   -10.6559 -10.6559 -10.4400 -10.4400 -10.2909 -10.2909 -10.2581 -10.2581
     0.0306   0.0306   0.2038   0.2038   1.6280   1.6280   1.6396   1.6396
     1.9316   1.9316   2.0160   2.0160   2.1458   2.1458   2.4094   2.4094
     2.5557   2.5557   2.5633   2.5633   2.6956   2.6956   3.1363   3.1363
     3.6721   3.6721   3.6785   3.6785   3.8594   3.8594   4.1976   4.1976
     4.2481   4.2481   4.3747   4.3747   4.4550   4.4550   4.7309   4.7309
     4.7363   4.7363   5.3155   5.3155   5.3213   5.3213   5.6757   5.6757
     5.7862   5.7862   6.0411   6.0411   6.0946   6.0946   6.4034   6.4034
     6.6336   6.6336   6.8905   6.8905   7.2587   7.2587   7.6316   7.6316
     7.7110   7.7110   8.0434   8.0434  12.4932  12.4932  13.3737  13.3737
    13.6376  13.6376  13.9195  13.9195  14.0078  14.0078  14.6586  14.6586
    15.2582  15.2584

          k =-0.4838 0.0000-0.3830 ( 15436 PWs)   bands (ev):

   -80.5324 -80.5324 -80.5324 -80.5324 -66.6638 -66.6638 -66.6638 -66.6638
   -47.1167 -47.1167 -47.1167 -47.1167 -46.4370 -46.4370 -46.4370 -46.4370
   -46.2103 -46.2103 -46.2103 -46.2103 -33.4301 -33.4301 -33.4301 -33.4301
   -33.4056 -33.4056 -33.4056 -33.4056 -33.3847 -33.3847 -33.3847 -33.3847
   -11.9140 -11.9140 -11.8730 -11.8730 -11.2560 -11.2560 -11.2386 -11.2386
   -10.6036 -10.6036 -10.4998 -10.4998 -10.2928 -10.2928 -10.2733 -10.2733
     0.1939   0.1939   0.2438   0.2438   1.5868   1.5868   1.8889   1.8889
     1.9796   1.9796   2.0831   2.0831   2.1890   2.1890   2.3984   2.3984
     2.6264   2.6264   2.6427   2.6427   3.0009   3.0009   3.1140   3.1140
     3.2310   3.2310   3.4306   3.4306   3.9080   3.9080   4.0438   4.0438
     4.2570   4.2570   4.3077   4.3077   4.3558   4.3558   4.5694   4.5694
     4.8617   4.8617   4.9708   4.9708   5.1135   5.1135   5.3736   5.3736
     5.9654   5.9654   6.0124   6.0124   6.3458   6.3458   6.3673   6.3673
     6.7528   6.7528   6.7879   6.7879   7.3846   7.3846   7.4139   7.4139
     7.8309   7.8309   7.8412   7.8412  13.4040  13.4040  13.5607  13.5607
    14.1269  14.1269  14.2485  14.2485  14.3621  14.3621  14.6983  14.6983
    15.3621  15.3621

 ------ SPIN DOWN ----------


          k = 0.0000 0.0000 0.0000 ( 15339 PWs)   bands (ev):

   -76.4010 -76.4009 -76.3996 -76.3995 -66.6628 -66.6628 -66.6628 -66.6628
   -42.7145 -42.7145 -42.7077 -42.7077 -42.4949 -42.4948 -42.4893 -42.4893
   -42.4710 -42.4710 -42.4487 -42.4487 -33.4301 -33.4300 -33.4287 -33.4286
   -33.4045 -33.4044 -33.4043 -33.4043 -33.3845 -33.3845 -33.3823 -33.3823
   -12.3029 -12.1348 -11.8070 -11.7368 -10.8777 -10.8586 -10.8025 -10.7738
   -10.5744 -10.3867 -10.3382 -10.3107 -10.3037 -10.2252 -10.1309 -10.0480
    -0.0308   0.0232   0.4898   0.5805   0.8197   0.8998   1.6077   1.6312
     1.6509   1.9357   2.1819   2.2013   2.3328   2.8723   2.9480   3.1384
     3.3012   3.4670   3.5675   3.5682   3.6243   3.7000   3.7372   3.7780
     3.8012   3.8211   3.8619   3.9152   4.1324   4.2416   4.2564   4.2835
     4.5658   4.5976   4.6751   4.7103   4.7932   4.8417   4.8539   4.9231
     5.1392   5.3363   5.3926   5.4648   5.4884   5.5179   5.5479   5.5934
     8.7192   8.7734   8.9655   9.0504   9.2184   9.2815   9.5427   9.6255
     9.7185   9.7979   9.9229   9.9412  10.3469  10.8029  10.8913  10.8984
    10.9189  11.0312  11.1413  11.1592  11.2153  12.4478  12.5296  13.9697
    14.4763  14.7040  14.7389  14.7761  14.8390  14.8585  15.2151  15.2491
    15.4917  15.9340

          k = 0.0000 0.0000-0.3830 ( 15392 PWs)   bands (ev):

   -76.4003 -76.4003 -76.4003 -76.4003 -66.6628 -66.6628 -66.6628 -66.6628
   -42.7111 -42.7111 -42.7111 -42.7111 -42.4916 -42.4916 -42.4916 -42.4916
   -42.4604 -42.4604 -42.4604 -42.4604 -33.4294 -33.4294 -33.4294 -33.4294
   -33.4044 -33.4044 -33.4043 -33.4043 -33.3834 -33.3834 -33.3834 -33.3834
   -12.0437 -12.0437 -11.9625 -11.9625 -10.8329 -10.8329 -10.8252 -10.8252
   -10.5000 -10.5000 -10.3416 -10.3416 -10.1858 -10.1858 -10.1352 -10.1352
     0.2813   0.2813   0.3101   0.3101   1.3370   1.3370   1.3818   1.3818
     2.0614   2.0614   2.3597   2.3597   2.6749   2.6749   2.9168   2.9168
     3.1595   3.1595   3.3787   3.3787   3.6004   3.6004   3.6610   3.6610
     3.8148   3.8148   3.8455   3.8455   4.1721   4.1721   4.1919   4.1919
     4.5721   4.5721   4.5948   4.5948   4.8142   4.8142   4.8755   4.8755
     4.9554   4.9554   5.1900   5.1900   5.5340   5.5340   5.5734   5.5734
     9.0909   9.0909   9.1425   9.1425   9.3619   9.3619   9.3686   9.3686
     9.6977   9.6977   9.7742   9.7742  10.7480  10.7480  10.7846  10.7846
    11.1345  11.1345  11.1729  11.1729  12.1333  12.1333  13.1723  13.1723
    13.8509  13.8509  15.0760  15.0760  15.5060  15.5060  16.0558  16.0560
    16.2037  16.3064

          k =-0.4838 0.0000 0.0000 ( 15374 PWs)   bands (ev):

   -76.4011 -76.4011 -76.3995 -76.3995 -66.6628 -66.6628 -66.6628 -66.6628
   -42.7145 -42.7145 -42.7077 -42.7077 -42.4949 -42.4949 -42.4893 -42.4893
   -42.4710 -42.4710 -42.4487 -42.4487 -33.4294 -33.4294 -33.4294 -33.4294
   -33.4044 -33.4044 -33.4043 -33.4043 -33.3834 -33.3834 -33.3834 -33.3834
   -11.9087 -11.9087 -11.6419 -11.6419 -11.2154 -11.2154 -10.9577 -10.9577
   -10.5313 -10.5313 -10.3196 -10.3196 -10.1876 -10.1876 -10.1613 -10.1613
     0.1920   0.1920   0.2839   0.2839   1.8135   1.8135   1.8594   1.8594
     2.1883   2.1883   2.2012   2.2012   2.4731   2.4731   2.6638   2.6638
     2.8170   2.8170   2.9172   2.9172   2.9544   2.9544   3.3846   3.3846
     3.9660   3.9660   4.1561   4.1561   4.4631   4.4631   4.4861   4.4861
     4.5883   4.5883   4.7102   4.7102   4.9982   4.9982   5.0038   5.0038
     5.1653   5.1653   5.4928   5.4928   5.5113   5.5113   5.8480   5.8480
     8.7989   8.7989   8.9488   8.9488   9.2573   9.2573   9.6022   9.6022
     9.8307   9.8307   9.9423   9.9423  10.5782  10.5782  10.8221  10.8221
    11.0700  11.0700  11.2559  11.2559  12.6556  12.6556  13.5548  13.5548
    13.9037  13.9037  14.0675  14.0675  14.2857  14.2857  14.9640  14.9640
    15.4614  15.4614

          k =-0.4838 0.0000-0.3830 ( 15436 PWs)   bands (ev):

   -76.4004 -76.4004 -76.4004 -76.4004 -66.6628 -66.6628 -66.6628 -66.6628
   -42.7111 -42.7111 -42.7111 -42.7111 -42.4916 -42.4916 -42.4916 -42.4916
   -42.4604 -42.4604 -42.4604 -42.4604 -33.4294 -33.4294 -33.4294 -33.4294
   -33.4044 -33.4044 -33.4044 -33.4044 -33.3834 -33.3834 -33.3834 -33.3834
   -11.7901 -11.7901 -11.7468 -11.7468 -11.1006 -11.1006 -11.0853 -11.0853
   -10.4835 -10.4835 -10.3793 -10.3793 -10.1911 -10.1911 -10.1718 -10.1718
     0.3178   0.3178   0.3798   0.3798   1.8922   1.8922   2.1786   2.1786
     2.2445   2.2445   2.3392   2.3392   2.3494   2.3494   2.6002   2.6002
     2.8320   2.8320   2.8604   2.8604   3.2669   3.2669   3.3223   3.3223
     3.4806   3.4806   3.8030   3.8030   4.3488   4.3488   4.4384   4.4384
     4.5021   4.5021   4.9180   4.9180   4.9343   4.9343   5.0562   5.0562
     5.1712   5.1712   5.3118   5.3118   5.4342   5.4342   5.5759   5.5759
     9.0611   9.0611   9.0903   9.0903   9.4253   9.4253   9.4329   9.4329
     9.7336   9.7336   9.7489   9.7489  10.5952  10.5952  10.6045  10.6045
    11.0511  11.0511  11.0569  11.0569  13.6665  13.6665  13.8417  13.8417
    14.3279  14.3279  14.5493  14.5493  14.7779  14.7780  15.0435  15.0435
    15.5528  15.5557

     the Fermi energy is     9.1976 ev

!    total energy              =   -2738.40781068 Ry

     total all-electron energy =    -16515.608721 Ry
     estimated scf accuracy    <       0.00000009 Ry
     smearing contrib. (-TS)   =      -0.00665011 Ry
     internal energy E=F+TS    =   -2738.40116057 Ry

     The total energy is F=E-TS. E is the sum of the following terms:
     one-electron contribution =   -1287.83052936 Ry
     hartree contribution      =     740.59040023 Ry
     xc contribution           =    -327.55666098 Ry
     ewald contribution        =   -1177.14103229 Ry
     one-center paw contrib.   =    -686.46333817 Ry

     total magnetization       =    16.00 Bohr mag/cell
     absolute magnetization    =    16.12 Bohr mag/cell

     convergence has been achieved in  26 iterations

     negative rho (up, down):  0.000E+00 1.709E-03

     Forces acting on atoms (cartesian axes, Ry/au):

     atom    1 type  1   force =     0.00000000    0.00000000   -0.00000000
     atom    2 type  1   force =     0.00000000   -0.00000000    0.00000000
     atom    3 type  1   force =     0.00000000    0.00000000   -0.00000000
     atom    4 type  1   force =     0.00000000    0.00000000    0.00000000
     atom    5 type  2   force =    -0.00043598   -0.00257158    0.00000000
     atom    6 type  2   force =     0.00043598    0.00257158   -0.00000000
     atom    7 type  2   force =    -0.00043598    0.00257158    0.00000000
     atom    8 type  2   force =     0.00043598   -0.00257158    0.00000000
     atom    9 type  3   force =     0.02496172   -0.04389149    0.00000000
     atom   10 type  3   force =    -0.02496172    0.04389149    0.00000000
     atom   11 type  3   force =     0.02496172    0.04389149    0.00000000
     atom   12 type  3   force =    -0.02496172   -0.04389149   -0.00000000
     atom   13 type  4   force =     0.03814321    0.02219302    0.00000000
     atom   14 type  4   force =    -0.03814321   -0.02219302    0.00000000
     atom   15 type  4   force =     0.03814321   -0.02219302    0.00000000
     atom   16 type  4   force =    -0.03814321    0.02219302    0.00000000
     atom   17 type  4   force =     0.01688970    0.02262916   -0.00000000
     atom   18 type  4   force =    -0.01688970   -0.02262916   -0.00000000
     atom   19 type  4   force =     0.01688970   -0.02262916    0.00000000
     atom   20 type  4   force =    -0.01688970    0.02262916    0.00000000
     atom   21 type  4   force =    -0.03160764    0.00574589   -0.02506085
     atom   22 type  4   force =     0.03160764   -0.00574589    0.02506085
     atom   23 type  4   force =    -0.03160764   -0.00574589    0.02506085
     atom   24 type  4   force =     0.03160764    0.00574589   -0.02506085
     atom   25 type  4   force =     0.03160764   -0.00574589   -0.02506085
     atom   26 type  4   force =    -0.03160764    0.00574589    0.02506085
     atom   27 type  4   force =     0.03160764    0.00574589    0.02506085
     atom   28 type  4   force =    -0.03160764   -0.00574589   -0.02506085

     Total force =     0.185702     Total SCF correction =     0.000298


     Computing stress (Cartesian axis) and pressure


     negative rho (up, down):  0.000E+00 1.709E-03
          total   stress  (Ry/bohr**3)                   (kbar)     P=      -58.49
  -0.00044379   0.00000000   0.00000000          -65.28        0.00        0.00
   0.00000000  -0.00010276   0.00000000            0.00      -15.12        0.00
   0.00000000   0.00000000  -0.00064618            0.00        0.00      -95.06

     Energy error            =      1.2E-01
     Gradient error          =      4.4E-02
     Cell gradient error     =      6.5E-04


     number of scf cycles    =   3
     number of bfgs steps    =   2

     enthalpy old            =   -2738.2869915436 Ry
     enthalpy new            =   -2738.4078106777 Ry

     CASE: enthalpy_new < enthalpy_old

     new trust radius        =       0.2420227440 bohr
     new conv_thr            =       0.0000001000 Ry

     new unit-cell volume =   2039.82493 a.u.^3 (   302.27087 Ang^3 )
     density =      3.78464 g/cm^3

CELL_PARAMETERS (angstrom)
   4.829562071   0.000000000   0.000000000
   0.000000000  10.355823819   0.000000000
   0.000000000   0.000000000   6.043713785

ATOMIC_POSITIONS (angstrom)
Fe            0.0000000000        0.0000000000       -0.0000000000
Fe            2.4147810356        5.1779119096        0.0000000000
Fe            0.0000000000        0.0000000000        3.0218568927
Fe            2.4147810356        5.1779119096        3.0218568927
Mg            0.0661817818        2.8720213270        4.5327853391
Mg            4.7633802893        7.4838024922        1.5109284464
Mg            2.4809628174        2.3058905826        1.5109284464
Mg            2.3485992537        8.0499332367        4.5327853391
Si            0.3765885089        4.2063911135        1.5109284464
Si            4.4529735622        6.1494327058        4.5327853391
Si            2.7913695445        0.9715207962        4.5327853391
Si            2.0381925266        9.3843030231        1.5109284464
O             1.1524310732        0.9402017608        4.5327853391
O             3.6771309979        9.4156220585        1.5109284464
O             3.5672121088        4.2377101488        1.5109284464
O             1.2623499624        6.1181136704        4.5327853391
O             1.4030824563        0.5818794009        1.5109284464
O             3.4264796148        9.7739444184        4.5327853391
O             3.8178634919        4.5960325088        4.5327853391
O             1.0116985793        5.7597913105        1.5109284464
O             1.0749781859        3.5010505120        2.7936767726
O             3.7545838853        6.8547733072        3.2500370128
O             3.4897592214        1.6768613976        3.2500370128
O             1.3398028497        8.6789624217        2.7936767726
O             3.7545838853        6.8547733072        5.8155336653
O             1.0749781859        3.5010505120        0.2281801201
O             1.3398028497        8.6789624217        0.2281801201
O             3.4897592214        1.6768613976        5.8155336653



     Writing output data file ./out/oliv.save/
     NEW-OLD atomic charge density approx. for the potential

     Check: negative core charge=   -0.000006

     negative rho (up, down):  0.000E+00 1.698E-03
     extrapolated charge  205.45919, renormalised to  216.00000
     Generating pointlists ...
     new r_m :   0.1764 (alat units)  1.5849 (a.u.) for type    2

     total cpu time spent up to now is     3917.2 secs

     Self-consistent Calculation

     iteration #  1     ecut=    60.00 Ry     beta= 0.30
     Davidson diagonalization with overlap
     c_bands:  3 eigenvalues not converged
     c_bands:  2 eigenvalues not converged
     c_bands:  3 eigenvalues not converged
     c_bands:  3 eigenvalues not converged
     c_bands:  2 eigenvalues not converged
     ethr =  1.00E-06,  avg # of iterations = 37.5

     total cpu time spent up to now is     4166.2 secs

     total energy              =   -2708.93092196 Ry
     estimated scf accuracy    <      49.53628093 Ry

     total magnetization       =     4.29 Bohr mag/cell
     absolute magnetization    =     4.54 Bohr mag/cell

     iteration #  2     ecut=    60.00 Ry     beta= 0.30
     Davidson diagonalization with overlap
     ethr =  1.00E-02,  avg # of iterations =  7.6

     total cpu time spent up to now is     4221.2 secs

     total energy              =   -2737.54589079 Ry
     estimated scf accuracy    <     162.52611523 Ry

     total magnetization       =     1.45 Bohr mag/cell
     absolute magnetization    =     1.52 Bohr mag/cell

     iteration #  3     ecut=    60.00 Ry     beta= 0.30
     Davidson diagonalization with overlap
     ethr =  1.00E-02,  avg # of iterations =  5.8

     negative rho (up, down):  0.000E+00 5.703E-05

     total cpu time spent up to now is     4260.2 secs

     total energy              =   -2729.83478920 Ry
     estimated scf accuracy    <      62.74519204 Ry

     total magnetization       =     7.23 Bohr mag/cell
     absolute magnetization    =     7.47 Bohr mag/cell

     iteration #  4     ecut=    60.00 Ry     beta= 0.30
     Davidson diagonalization with overlap
     ethr =  1.00E-02,  avg # of iterations =  8.2

     total cpu time spent up to now is     4302.6 secs

     total energy              =   -2737.35809674 Ry
     estimated scf accuracy    <       0.79552480 Ry

     total magnetization       =     5.53 Bohr mag/cell
     absolute magnetization    =     5.94 Bohr mag/cell

     iteration #  5     ecut=    60.00 Ry     beta= 0.30
     Davidson diagonalization with overlap
     c_bands:  1 eigenvalues not converged
     ethr =  3.68E-04,  avg # of iterations = 15.6

     negative rho (up, down):  0.000E+00 1.406E-04

     total cpu time spent up to now is     4373.9 secs

     total energy              =   -2738.35206040 Ry
     estimated scf accuracy    <       0.33155544 Ry

     total magnetization       =    15.52 Bohr mag/cell
     absolute magnetization    =    15.57 Bohr mag/cell

     iteration #  6     ecut=    60.00 Ry     beta= 0.30
     Davidson diagonalization with overlap
     ethr =  1.53E-04,  avg # of iterations =  4.0

     negative rho (up, down):  0.000E+00 3.613E-04

     total cpu time spent up to now is     4403.7 secs

     total energy              =   -2738.52520290 Ry
     estimated scf accuracy    <       0.44856525 Ry

     total magnetization       =    16.00 Bohr mag/cell
     absolute magnetization    =    16.07 Bohr mag/cell

     iteration #  7     ecut=    60.00 Ry     beta= 0.30
     Davidson diagonalization with overlap
     ethr =  1.53E-04,  avg # of iterations =  3.6

     negative rho (up, down):  0.000E+00 4.685E-04

     total cpu time spent up to now is     4434.2 secs

     total energy              =   -2738.57875462 Ry
     estimated scf accuracy    <       0.86147303 Ry

     total magnetization       =    16.33 Bohr mag/cell
     absolute magnetization    =    16.39 Bohr mag/cell

     iteration #  8     ecut=    60.00 Ry     beta= 0.30
     Davidson diagonalization with overlap
     ethr =  1.53E-04,  avg # of iterations =  2.0

     negative rho (up, down):  0.000E+00 9.604E-04

     total cpu time spent up to now is     4465.6 secs

     total energy              =   -2738.49943207 Ry
     estimated scf accuracy    <       0.97718397 Ry

     total magnetization       =    16.47 Bohr mag/cell
     absolute magnetization    =    16.53 Bohr mag/cell

     iteration #  9     ecut=    60.00 Ry     beta= 0.30
     Davidson diagonalization with overlap
     ethr =  1.53E-04,  avg # of iterations =  2.0

     negative rho (up, down):  0.000E+00 1.341E-03

     total cpu time spent up to now is     4499.4 secs

     total energy              =   -2738.52301858 Ry
     estimated scf accuracy    <       0.44630956 Ry

     total magnetization       =    16.05 Bohr mag/cell
     absolute magnetization    =    16.17 Bohr mag/cell

     iteration # 10     ecut=    60.00 Ry     beta= 0.30
     Davidson diagonalization with overlap
     ethr =  1.53E-04,  avg # of iterations =  1.0

     negative rho (up, down):  0.000E+00 1.893E-03

     total cpu time spent up to now is     4528.6 secs

     total energy              =   -2738.45607853 Ry
     estimated scf accuracy    <       0.43780193 Ry

     total magnetization       =    16.21 Bohr mag/cell
     absolute magnetization    =    16.32 Bohr mag/cell

     iteration # 11     ecut=    60.00 Ry     beta= 0.30
     Davidson diagonalization with overlap
     ethr =  1.53E-04,  avg # of iterations =  2.0

     negative rho (up, down):  0.000E+00 1.528E-03

     total cpu time spent up to now is     4561.3 secs

     total energy              =   -2738.41925155 Ry
     estimated scf accuracy    <       0.18965781 Ry

     total magnetization       =    16.00 Bohr mag/cell
     absolute magnetization    =    16.16 Bohr mag/cell

     iteration # 12     ecut=    60.00 Ry     beta= 0.30
     Davidson diagonalization with overlap
     ethr =  8.78E-05,  avg # of iterations =  2.0

     negative rho (up, down):  0.000E+00 1.546E-03

     total cpu time spent up to now is     4591.7 secs

     total energy              =   -2738.43605534 Ry
     estimated scf accuracy    <       0.02222888 Ry

     total magnetization       =    16.00 Bohr mag/cell
     absolute magnetization    =    16.11 Bohr mag/cell

     iteration # 13     ecut=    60.00 Ry     beta= 0.30
     Davidson diagonalization with overlap
     c_bands:  1 eigenvalues not converged
     c_bands:  2 eigenvalues not converged
     ethr =  1.03E-05,  avg # of iterations = 14.0

     negative rho (up, down):  0.000E+00 1.610E-03

     total cpu time spent up to now is     4643.2 secs

     total energy              =   -2738.44355815 Ry
     estimated scf accuracy    <       0.00300987 Ry

     total magnetization       =    16.00 Bohr mag/cell
     absolute magnetization    =    16.11 Bohr mag/cell

     iteration # 14     ecut=    60.00 Ry     beta= 0.30
     Davidson diagonalization with overlap
     c_bands:  1 eigenvalues not converged
     c_bands:  2 eigenvalues not converged
     c_bands:  1 eigenvalues not converged
     c_bands:  1 eigenvalues not converged
     ethr =  1.39E-06,  avg # of iterations = 14.9

     negative rho (up, down):  0.000E+00 1.638E-03

     total cpu time spent up to now is     4697.0 secs

     total energy              =   -2738.44435212 Ry
     estimated scf accuracy    <       0.00107705 Ry

     total magnetization       =    16.00 Bohr mag/cell
     absolute magnetization    =    16.12 Bohr mag/cell

     iteration # 15     ecut=    60.00 Ry     beta= 0.30
     Davidson diagonalization with overlap
     ethr =  4.99E-07,  avg # of iterations =  5.5

     negative rho (up, down):  0.000E+00 1.643E-03

     total cpu time spent up to now is     4728.6 secs

     total energy              =   -2738.44450043 Ry
     estimated scf accuracy    <       0.00090299 Ry

     total magnetization       =    16.00 Bohr mag/cell
     absolute magnetization    =    16.12 Bohr mag/cell

     iteration # 16     ecut=    60.00 Ry     beta= 0.30
     Davidson diagonalization with overlap
     ethr =  4.18E-07,  avg # of iterations =  2.0

     negative rho (up, down):  0.000E+00 1.650E-03

     total cpu time spent up to now is     4754.7 secs

     total energy              =   -2738.44453340 Ry
     estimated scf accuracy    <       0.00031750 Ry

     total magnetization       =    16.00 Bohr mag/cell
     absolute magnetization    =    16.12 Bohr mag/cell

     iteration # 17     ecut=    60.00 Ry     beta= 0.30
     Davidson diagonalization with overlap
     ethr =  1.47E-07,  avg # of iterations =  3.5

     negative rho (up, down):  0.000E+00 1.659E-03

     total cpu time spent up to now is     4786.2 secs

     total energy              =   -2738.44459906 Ry
     estimated scf accuracy    <       0.00005870 Ry

     total magnetization       =    16.00 Bohr mag/cell
     absolute magnetization    =    16.12 Bohr mag/cell

     iteration # 18     ecut=    60.00 Ry     beta= 0.30
     Davidson diagonalization with overlap
     ethr =  2.72E-08,  avg # of iterations =  7.4

     negative rho (up, down):  0.000E+00 1.659E-03

     total cpu time spent up to now is     4848.2 secs

     total energy              =   -2738.44463009 Ry
     estimated scf accuracy    <       0.00024026 Ry

     total magnetization       =    16.00 Bohr mag/cell
     absolute magnetization    =    16.12 Bohr mag/cell

     iteration # 19     ecut=    60.00 Ry     beta= 0.30
     Davidson diagonalization with overlap
     ethr =  2.72E-08,  avg # of iterations =  5.4

     negative rho (up, down):  0.000E+00 1.660E-03

     total cpu time spent up to now is     4887.8 secs

     total energy              =   -2738.44464163 Ry
     estimated scf accuracy    <       0.00004643 Ry

     total magnetization       =    16.00 Bohr mag/cell
     absolute magnetization    =    16.12 Bohr mag/cell

     iteration # 20     ecut=    60.00 Ry     beta= 0.30
     Davidson diagonalization with overlap
     ethr =  2.15E-08,  avg # of iterations =  4.1

     negative rho (up, down):  0.000E+00 1.660E-03

     total cpu time spent up to now is     4931.0 secs

     total energy              =   -2738.44465828 Ry
     estimated scf accuracy    <       0.00000809 Ry

     total magnetization       =    16.00 Bohr mag/cell
     absolute magnetization    =    16.13 Bohr mag/cell

     iteration # 21     ecut=    60.00 Ry     beta= 0.30
     Davidson diagonalization with overlap
     ethr =  3.74E-09,  avg # of iterations =  4.6

     negative rho (up, down):  0.000E+00 1.659E-03

     total cpu time spent up to now is     4977.3 secs

     total energy              =   -2738.44466305 Ry
     estimated scf accuracy    <       0.00000408 Ry

     total magnetization       =    16.00 Bohr mag/cell
     absolute magnetization    =    16.13 Bohr mag/cell

     iteration # 22     ecut=    60.00 Ry     beta= 0.30
     Davidson diagonalization with overlap
     ethr =  1.89E-09,  avg # of iterations =  4.2

     negative rho (up, down):  0.000E+00 1.659E-03

     total cpu time spent up to now is     5016.6 secs

     total energy              =   -2738.44466782 Ry
     estimated scf accuracy    <       0.00000105 Ry

     total magnetization       =    16.00 Bohr mag/cell
     absolute magnetization    =    16.13 Bohr mag/cell

     iteration # 23     ecut=    60.00 Ry     beta= 0.30
     Davidson diagonalization with overlap
     ethr =  4.86E-10,  avg # of iterations =  6.0

     negative rho (up, down):  0.000E+00 1.659E-03

     total cpu time spent up to now is     5055.2 secs

     total energy              =   -2738.44466996 Ry
     estimated scf accuracy    <       0.00000027 Ry

     total magnetization       =    16.00 Bohr mag/cell
     absolute magnetization    =    16.13 Bohr mag/cell

     iteration # 24     ecut=    60.00 Ry     beta= 0.30
     Davidson diagonalization with overlap
     ethr =  1.25E-10,  avg # of iterations =  5.9

     negative rho (up, down):  0.000E+00 1.658E-03

     total cpu time spent up to now is     5089.7 secs

     total energy              =   -2738.44467007 Ry
     estimated scf accuracy    <       0.00000014 Ry

     total magnetization       =    16.00 Bohr mag/cell
     absolute magnetization    =    16.13 Bohr mag/cell

     iteration # 25     ecut=    60.00 Ry     beta= 0.30
     Davidson diagonalization with overlap
     ethr =  6.58E-11,  avg # of iterations =  4.6

     negative rho (up, down):  0.000E+00 1.658E-03

     Magnetic moment per site:
     atom:    1    charge:   13.3669    magn:    3.3475    constr:    0.0000
     atom:    2    charge:   13.3669    magn:    3.3475    constr:    0.0000
     atom:    3    charge:   13.3669    magn:    3.3475    constr:    0.0000
     atom:    4    charge:   13.3669    magn:    3.3475    constr:    0.0000
     atom:    5    charge:    8.0753    magn:    0.0011    constr:    0.0000
     atom:    6    charge:    8.0753    magn:    0.0011    constr:    0.0000
     atom:    7    charge:    8.0753    magn:    0.0011    constr:    0.0000
     atom:    8    charge:    8.0753    magn:    0.0011    constr:    0.0000
     atom:    9    charge:    0.3976    magn:    0.0016    constr:    0.0000
     atom:   10    charge:    0.3976    magn:    0.0016    constr:    0.0000
     atom:   11    charge:    0.3976    magn:    0.0016    constr:    0.0000
     atom:   12    charge:    0.3976    magn:    0.0016    constr:    0.0000
     atom:   13    charge:    4.0389    magn:    0.0801    constr:    0.0000
     atom:   14    charge:    4.0389    magn:    0.0801    constr:    0.0000
     atom:   15    charge:    4.0389    magn:    0.0801    constr:    0.0000
     atom:   16    charge:    4.0389    magn:    0.0801    constr:    0.0000
     atom:   17    charge:    4.0344    magn:    0.0842    constr:    0.0000
     atom:   18    charge:    4.0344    magn:    0.0842    constr:    0.0000
     atom:   19    charge:    4.0344    magn:    0.0842    constr:    0.0000
     atom:   20    charge:    4.0344    magn:    0.0842    constr:    0.0000
     atom:   21    charge:    4.0490    magn:    0.0450    constr:    0.0000
     atom:   22    charge:    4.0490    magn:    0.0450    constr:    0.0000
     atom:   23    charge:    4.0490    magn:    0.0450    constr:    0.0000
     atom:   24    charge:    4.0490    magn:    0.0450    constr:    0.0000
     atom:   25    charge:    4.0490    magn:    0.0450    constr:    0.0000
     atom:   26    charge:    4.0490    magn:    0.0450    constr:    0.0000
     atom:   27    charge:    4.0490    magn:    0.0450    constr:    0.0000
     atom:   28    charge:    4.0490    magn:    0.0450    constr:    0.0000

     total cpu time spent up to now is     5129.2 secs

     End of self-consistent calculation

 ------ SPIN UP ------------


          k = 0.0000 0.0000 0.0000 ( 15339 PWs)   bands (ev):

   -79.9487 -79.9487 -79.9467 -79.9467 -65.9458 -65.9458 -65.9457 -65.9457
   -46.5323 -46.5323 -46.5266 -46.5266 -45.8738 -45.8737 -45.8712 -45.8712
   -45.6324 -45.6324 -45.6026 -45.6026 -32.7186 -32.7186 -32.7166 -32.7166
   -32.6856 -32.6855 -32.6853 -32.6852 -32.6725 -32.6725 -32.6694 -32.6693
   -12.1737 -11.9617 -11.6784 -11.5398 -10.5083 -10.4424 -10.4413 -10.4057
   -10.3404 -10.2650 -10.1732 -10.1706 -10.1057 -10.1012 -10.0849  -9.9950
     0.2529   0.3220   0.9146   0.9944   1.0070   1.0125   1.7492   1.9224
     1.9230   2.0659   2.1778   2.3814   2.3885   3.1150   3.2072   3.2880
     3.3812   3.4706   3.5638   3.5680   3.6364   3.7926   3.8394   3.8666
     3.9215   3.9265   3.9560   4.0654   4.1020   4.2252   4.3342   4.3498
     4.5377   4.5750   4.6528   4.8637   4.8884   5.1366   5.1804   5.1960
     5.2067   5.2464   5.4889   5.5851   5.7535   5.7821   5.7898   5.8502
     6.2236   6.2453   6.4205   6.5260   6.5396   6.6007   7.0669   7.0701
     7.2672   7.3447   7.4584   7.4998   8.0986   8.2139   8.2431   8.2994
     8.3132   8.4779   8.5684   8.6227  10.9864  12.8927  13.4673  14.6792
    15.1710  15.6192  15.6240  15.6734  15.6767  15.7459  16.0655  16.0668
    16.1827  16.5800

          k = 0.0000 0.0000-0.3933 ( 15392 PWs)   bands (ev):

   -79.9477 -79.9477 -79.9477 -79.9477 -65.9457 -65.9457 -65.9457 -65.9457
   -46.5294 -46.5294 -46.5294 -46.5294 -45.8725 -45.8725 -45.8725 -45.8725
   -45.6176 -45.6176 -45.6176 -45.6176 -32.7176 -32.7176 -32.7176 -32.7176
   -32.6854 -32.6854 -32.6854 -32.6854 -32.6710 -32.6710 -32.6710 -32.6710
   -11.8828 -11.8828 -11.7946 -11.7946 -10.4514 -10.4514 -10.4369 -10.4369
   -10.3889 -10.3889 -10.1791 -10.1791 -10.0778 -10.0778 -10.0089 -10.0089
     0.6360   0.6360   0.6670   0.6670   1.5167   1.5167   1.6478   1.6478
     2.2094   2.2094   2.5725   2.5725   2.7716   2.7716   3.0959   3.0959
     3.1757   3.1757   3.3498   3.3498   3.6699   3.6699   3.8341   3.8341
     3.9430   3.9430   3.9664   3.9664   4.1410   4.1410   4.2698   4.2698
     4.5315   4.5315   4.7561   4.7561   4.8639   4.8639   5.0326   5.0326
     5.1041   5.1041   5.2040   5.2040   5.6575   5.6575   5.7423   5.7423
     6.4489   6.4489   6.5346   6.5346   6.9260   6.9260   6.9848   6.9848
     7.3374   7.3374   7.4108   7.4108   8.1555   8.1555   8.1680   8.1680
     8.3695   8.3695   8.3888   8.3888  12.8343  12.8343  13.9692  13.9692
    14.6178  14.6178  15.9634  15.9635  16.0972  16.0972  16.9525  16.9554
    17.0376  17.0379

          k =-0.4922 0.0000 0.0000 ( 15374 PWs)   bands (ev):

   -79.9487 -79.9487 -79.9467 -79.9467 -65.9457 -65.9457 -65.9457 -65.9457
   -46.5323 -46.5323 -46.5266 -46.5266 -45.8738 -45.8738 -45.8712 -45.8712
   -45.6325 -45.6325 -45.6026 -45.6026 -32.7177 -32.7177 -32.7176 -32.7176
   -32.6854 -32.6854 -32.6854 -32.6854 -32.6709 -32.6709 -32.6709 -32.6709
   -11.7574 -11.7574 -11.4911 -11.4911 -10.8685 -10.8685 -10.6169 -10.6169
   -10.2922 -10.2922 -10.1391 -10.1391 -10.1102 -10.1102 -10.0487 -10.0487
     0.5077   0.5077   0.6560   0.6560   2.0096   2.0096   2.0326   2.0326
     2.3017   2.3017   2.4773   2.4773   2.5501   2.5501   2.6991   2.6991
     2.9928   2.9928   3.0405   3.0405   3.1101   3.1101   3.6261   3.6261
     4.1054   4.1054   4.1351   4.1351   4.2695   4.2695   4.5753   4.5753
     4.5991   4.5991   4.7530   4.7530   4.8306   4.8306   5.1838   5.1838
     5.2017   5.2017   5.7918   5.7918   5.8568   5.8568   6.1650   6.1650
     6.3113   6.3113   6.5275   6.5275   6.6753   6.6753   7.0966   7.0966
     7.1943   7.1943   7.4604   7.4604   7.8344   7.8344   8.3192   8.3192
     8.4289   8.4289   8.5755   8.5755  13.4959  13.4959  14.2126  14.2126
    14.6520  14.6520  14.9591  14.9591  15.0632  15.0633  15.5632  15.5633
    16.2321  16.3268

          k =-0.4922 0.0000-0.3933 ( 15436 PWs)   bands (ev):

   -79.9477 -79.9477 -79.9477 -79.9477 -65.9457 -65.9457 -65.9457 -65.9457
   -46.5295 -46.5295 -46.5294 -46.5294 -45.8725 -45.8725 -45.8725 -45.8725
   -45.6176 -45.6176 -45.6176 -45.6176 -32.7177 -32.7177 -32.7177 -32.7177
   -32.6854 -32.6854 -32.6854 -32.6854 -32.6710 -32.6710 -32.6709 -32.6709
   -11.6322 -11.6322 -11.5812 -11.5812 -10.7552 -10.7552 -10.7478 -10.7478
   -10.2772 -10.2772 -10.2299 -10.2299 -10.0791 -10.0791 -10.0538 -10.0538
     0.6813   0.6813   0.7661   0.7661   1.9673   1.9673   2.3105   2.3105
     2.4491   2.4491   2.5493   2.5493   2.6051   2.6051   2.7491   2.7491
     2.9586   2.9586   3.0483   3.0483   3.3393   3.3393   3.4590   3.4590
     3.6103   3.6103   3.9089   3.9089   4.4105   4.4105   4.5264   4.5264
     4.6426   4.6426   4.7461   4.7461   4.7854   4.7854   5.0132   5.0132
     5.2814   5.2814   5.3596   5.3596   5.5738   5.5738   5.7825   5.7825
     6.5224   6.5224   6.5664   6.5664   6.9757   6.9757   6.9895   6.9895
     7.3128   7.3128   7.3489   7.3489   8.0578   8.0578   8.0890   8.0890
     8.4014   8.4014   8.4194   8.4194  14.3681  14.3681  14.5356  14.5356
    15.1778  15.1778  15.2689  15.2689  15.3392  15.3392  15.6368  15.6368
    16.5034  16.5035

 ------ SPIN DOWN ----------


          k = 0.0000 0.0000 0.0000 ( 15339 PWs)   bands (ev):

   -75.8220 -75.8218 -75.8197 -75.8196 -65.9449 -65.9449 -65.9448 -65.9448
   -42.1232 -42.1232 -42.1153 -42.1153 -41.9370 -41.9370 -41.9335 -41.9334
   -41.8988 -41.8988 -41.8626 -41.8625 -32.7180 -32.7180 -32.7160 -32.7160
   -32.6844 -32.6843 -32.6840 -32.6840 -32.6713 -32.6713 -32.6682 -32.6682
   -12.0516 -11.8333 -11.5683 -11.4223 -10.3573 -10.2897 -10.2868 -10.2470
   -10.1877 -10.1653 -10.0794 -10.0237  -9.9838  -9.9497  -9.9419  -9.9002
     0.4748   0.4979   1.0264   1.1030   1.1443   1.2052   1.9926   2.0214
     2.0484   2.3992   2.4580   2.4694   2.6783   3.2479   3.2954   3.4768
     3.7718   3.7956   3.9565   4.0597   4.0645   4.1128   4.1930   4.2001
     4.2065   4.4049   4.4140   4.4684   4.5745   4.6599   4.6695   4.7486
     4.9242   5.0430   5.0810   5.2148   5.2235   5.2998   5.3567   5.3657
     5.6164   5.6933   5.8389   5.8413   5.9083   5.9754   6.0265   6.0659
     9.2431   9.2900   9.4586   9.5616   9.7945   9.8560  10.0874  10.1880
    10.2872  10.3580  10.6076  10.6106  11.3089  11.4323  11.5288  11.5828
    11.6378  11.6967  11.7269  11.7540  11.8111  13.3806  13.5924  14.7827
    15.3368  15.7397  15.8987  15.9068  15.9621  15.9753  16.1727  16.2388
    16.4420  17.0214

          k = 0.0000 0.0000-0.3933 ( 15392 PWs)   bands (ev):

   -75.8209 -75.8209 -75.8209 -75.8209 -65.9449 -65.9449 -65.9449 -65.9449
   -42.1192 -42.1192 -42.1192 -42.1192 -41.9352 -41.9352 -41.9352 -41.9352
   -41.8809 -41.8809 -41.8809 -41.8809 -32.7170 -32.7170 -32.7170 -32.7170
   -32.6842 -32.6842 -32.6842 -32.6842 -32.6698 -32.6698 -32.6698 -32.6698
   -11.7620 -11.7620 -11.6733 -11.6733 -10.2965 -10.2965 -10.2816 -10.2816
   -10.2672 -10.2672 -10.0680 -10.0680  -9.9397  -9.9397  -9.8826  -9.8826
     0.8019   0.8019   0.8496   0.8496   1.6807   1.6807   1.7615   1.7615
     2.3836   2.3836   2.7798   2.7798   3.0065   3.0065   3.3161   3.3161
     3.5588   3.5588   3.7938   3.7938   4.0428   4.0428   4.0799   4.0799
     4.2720   4.2720   4.3245   4.3245   4.6293   4.6293   4.6810   4.6810
     5.0191   5.0191   5.0635   5.0635   5.2586   5.2586   5.2881   5.2881
     5.3404   5.3404   5.5641   5.5641   5.9783   5.9783   5.9965   5.9965
     9.6291   9.6291   9.6861   9.6861   9.9659   9.9659   9.9663   9.9663
    10.2465  10.2465  10.3203  10.3203  11.4337  11.4337  11.4604  11.4604
    11.7165  11.7165  11.7556  11.7556  13.1384  13.1384  14.3150  14.3150
    14.8159  14.8159  16.1508  16.1508  16.4195  16.4196  17.2010  17.2098
    17.2654  17.2673

          k =-0.4922 0.0000 0.0000 ( 15374 PWs)   bands (ev):

   -75.8220 -75.8220 -75.8197 -75.8197 -65.9449 -65.9449 -65.9449 -65.9449
   -42.1233 -42.1233 -42.1153 -42.1153 -41.9370 -41.9370 -41.9334 -41.9334
   -41.8988 -41.8988 -41.8626 -41.8626 -32.7171 -32.7171 -32.7170 -32.7170
   -32.6842 -32.6842 -32.6842 -32.6842 -32.6698 -32.6698 -32.6698 -32.6698
   -11.6425 -11.6425 -11.3786 -11.3786 -10.6991 -10.6991 -10.4682 -10.4682
   -10.1349 -10.1349 -10.0387 -10.0387 -10.0160 -10.0160  -9.8986  -9.8986
     0.6648   0.6648   0.7422   0.7422   2.2121   2.2121   2.2315   2.2315
     2.5555   2.5555   2.6606   2.6606   2.8567   2.8567   3.0256   3.0256
     3.2222   3.2222   3.3662   3.3662   3.3790   3.3790   3.8450   3.8450
     4.3986   4.3986   4.5486   4.5486   4.8105   4.8105   4.8845   4.8845
     5.0674   5.0674   5.1786   5.1786   5.4205   5.4205   5.4266   5.4266
     5.6139   5.6139   5.9687   5.9687   6.0225   6.0225   6.3489   6.3489
     9.3150   9.3150   9.4589   9.4589   9.8268   9.8268  10.1621  10.1621
    10.3989  10.3989  10.6335  10.6335  11.2084  11.2084  11.4802  11.4802
    11.7615  11.7615  11.8251  11.8251  13.6869  13.6869  14.4189  14.4189
    14.9718  14.9718  15.1269  15.1269  15.2237  15.2237  15.9354  15.9354
    16.4872  16.4876

          k =-0.4922 0.0000-0.3933 ( 15436 PWs)   bands (ev):

   -75.8209 -75.8209 -75.8209 -75.8209 -65.9449 -65.9449 -65.9449 -65.9449
   -42.1192 -42.1192 -42.1192 -42.1192 -41.9352 -41.9352 -41.9352 -41.9352
   -41.8809 -41.8809 -41.8809 -41.8809 -32.7171 -32.7171 -32.7171 -32.7171
   -32.6842 -32.6842 -32.6842 -32.6842 -32.6698 -32.6698 -32.6698 -32.6698
   -11.5172 -11.5172 -11.4653 -11.4653 -10.6033 -10.6033 -10.5866 -10.5866
   -10.1360 -10.1360 -10.1174 -10.1174  -9.9648  -9.9648  -9.9184  -9.9184
     0.8056   0.8056   0.9058   0.9058   2.2691   2.2691   2.5643   2.5643
     2.6888   2.6888   2.7890   2.7890   2.8285   2.8285   2.9762   2.9762
     3.1902   3.1902   3.2502   3.2502   3.5877   3.5877   3.6699   3.6699
     3.8678   3.8678   4.2608   4.2608   4.8286   4.8286   4.8520   4.8520
     4.9417   4.9417   5.3765   5.3765   5.4129   5.4129   5.5284   5.5284
     5.6181   5.6181   5.7214   5.7214   5.8904   5.8904   6.0003   6.0003
     9.5940   9.5940   9.6228   9.6228  10.0430  10.0430  10.0486  10.0486
    10.2872  10.2872  10.3023  10.3023  11.2858  11.2858  11.3004  11.3004
    11.6437  11.6437  11.6491  11.6491  14.6495  14.6495  14.8617  14.8617
    15.3950  15.3950  15.5873  15.5873  15.6828  15.6828  15.9966  15.9966
    16.6855  16.6858

     the Fermi energy is     9.7533 ev

!    total energy              =   -2738.44467038 Ry

     total all-electron energy =    -16515.645581 Ry
     estimated scf accuracy    <       0.00000005 Ry
     smearing contrib. (-TS)   =      -0.00512428 Ry
     internal energy E=F+TS    =   -2738.43954610 Ry

     The total energy is F=E-TS. E is the sum of the following terms:
     one-electron contribution =   -1251.60300379 Ry
     hartree contribution      =     727.03129771 Ry
     xc contribution           =    -328.51307426 Ry
     ewald contribution        =   -1198.86319032 Ry
     one-center paw contrib.   =    -686.49157544 Ry

     total magnetization       =    16.00 Bohr mag/cell
     absolute magnetization    =    16.13 Bohr mag/cell

     convergence has been achieved in  25 iterations

     negative rho (up, down):  0.000E+00 1.658E-03

     Forces acting on atoms (cartesian axes, Ry/au):

     atom    1 type  1   force =     0.00000000    0.00000000   -0.00000000
     atom    2 type  1   force =    -0.00000000   -0.00000000   -0.00000000
     atom    3 type  1   force =     0.00000000    0.00000000    0.00000000
     atom    4 type  1   force =     0.00000000    0.00000000    0.00000000
     atom    5 type  2   force =     0.00311920   -0.00280294    0.00000000
     atom    6 type  2   force =    -0.00311920    0.00280294    0.00000000
     atom    7 type  2   force =     0.00311920    0.00280294   -0.00000000
     atom    8 type  2   force =    -0.00311920   -0.00280294   -0.00000000
     atom    9 type  3   force =    -0.02377761    0.03730958   -0.00000000
     atom   10 type  3   force =     0.02377761   -0.03730958    0.00000000
     atom   11 type  3   force =    -0.02377761   -0.03730958   -0.00000000
     atom   12 type  3   force =     0.02377761    0.03730958   -0.00000000
     atom   13 type  4   force =    -0.00029167    0.02233532    0.00000000
     atom   14 type  4   force =     0.00029167   -0.02233532    0.00000000
     atom   15 type  4   force =    -0.00029167   -0.02233532    0.00000000
     atom   16 type  4   force =     0.00029167    0.02233532    0.00000000
     atom   17 type  4   force =     0.00942849   -0.00255669    0.00000000
     atom   18 type  4   force =    -0.00942849    0.00255669    0.00000000
     atom   19 type  4   force =     0.00942849    0.00255669    0.00000000
     atom   20 type  4   force =    -0.00942849   -0.00255669    0.00000000
     atom   21 type  4   force =     0.00749795   -0.02772124    0.03608873
     atom   22 type  4   force =    -0.00749795    0.02772124   -0.03608873
     atom   23 type  4   force =     0.00749795    0.02772124   -0.03608873
     atom   24 type  4   force =    -0.00749795   -0.02772124    0.03608873
     atom   25 type  4   force =    -0.00749795    0.02772124    0.03608873
     atom   26 type  4   force =     0.00749795   -0.02772124   -0.03608873
     atom   27 type  4   force =    -0.00749795   -0.02772124   -0.03608873
     atom   28 type  4   force =     0.00749795    0.02772124    0.03608873

     Total force =     0.165209     Total SCF correction =     0.000184


     Computing stress (Cartesian axis) and pressure


     negative rho (up, down):  0.000E+00 1.658E-03
          total   stress  (Ry/bohr**3)                   (kbar)     P=       31.51
   0.00024723   0.00000000   0.00000000           36.37        0.00        0.00
   0.00000000   0.00015801   0.00000000            0.00       23.24        0.00
   0.00000000   0.00000000   0.00023733            0.00        0.00       34.91

     Energy error            =      3.7E-02
     Gradient error          =      3.7E-02
     Cell gradient error     =      2.5E-04


     number of scf cycles    =   4
     number of bfgs steps    =   3

     enthalpy old            =   -2738.4078106777 Ry
     enthalpy new            =   -2738.4446703756 Ry

     CASE: enthalpy_new < enthalpy_old

     new trust radius        =       0.0410656949 bohr
     new conv_thr            =       0.0000001000 Ry

     new unit-cell volume =   2062.07158 a.u.^3 (   305.56748 Ang^3 )
     density =      3.74381 g/cm^3

CELL_PARAMETERS (angstrom)
   4.851518439   0.000000000   0.000000000
   0.000000000  10.378243267   0.000000000
   0.000000000   0.000000000   6.068838813

ATOMIC_POSITIONS (angstrom)
Fe            0.0000000000        0.0000000000       -0.0000000000
Fe            2.4257592193        5.1891216333       -0.0000000000
Fe            0.0000000000        0.0000000000        3.0344194066
Fe            2.4257592193        5.1891216333        3.0344194066
Mg            0.0676092616        2.8771430628        4.5516291100
Mg            4.7839091770        7.5011002039        1.5172097033
Mg            2.4933684809        2.3119785706        1.5172097033
Mg            2.3581499577        8.0662646961        4.5516291100
Si            0.3715722460        4.2297858788        1.5172097033
Si            4.4799461925        6.1484573879        4.5516291100
Si            2.7973314653        0.9593357546        4.5516291100
Si            2.0541869733        9.4189075121        1.5172097033
O             1.1555901338        0.9494130600        4.5516291100
O             3.6959283048        9.4288302067        1.5172097033
O             3.5813493531        4.2397085733        1.5172097033
O             1.2701690855        6.1385346933        4.5516291100
O             1.4123557752        0.5796840247        1.5172097033
O             3.4391626634        9.7985592419        4.5516291100
O             3.8381149945        4.6094376086        4.5516291100
O             1.0134034441        5.7688056580        1.5172097033
O             1.0829680041        3.4997223942        2.8170309245
O             3.7685504345        6.8785208724        3.2518078888
O             3.5087272233        1.6893992391        3.2518078888
O             1.3427912152        8.6888440275        2.8170309245
O             3.7685504345        6.8785208724        5.8514503311
O             1.0829680041        3.4997223942        0.2173884822
O             1.3427912152        8.6888440275        0.2173884822
O             3.5087272233        1.6893992391        5.8514503311



     Writing output data file ./out/oliv.save/
     NEW-OLD atomic charge density approx. for the potential

     Check: negative core charge=   -0.000006

     negative rho (up, down):  0.000E+00 1.662E-03
     extrapolated charge  218.33023, renormalised to  216.00000
     Generating pointlists ...

     total cpu time spent up to now is     5170.8 secs

     Self-consistent Calculation

     iteration #  1     ecut=    60.00 Ry     beta= 0.30
     Davidson diagonalization with overlap
     c_bands:  2 eigenvalues not converged
     c_bands:  1 eigenvalues not converged
     ethr =  1.00E-06,  avg # of iterations = 15.6

     negative rho (up, down):  0.000E+00 1.846E-03

     total cpu time spent up to now is     5349.3 secs

     total energy              =   -2738.01690312 Ry
     estimated scf accuracy    <       0.55113833 Ry

     total magnetization       =    16.50 Bohr mag/cell
     absolute magnetization    =    16.64 Bohr mag/cell

     iteration #  2     ecut=    60.00 Ry     beta= 0.30
     Davidson diagonalization with overlap
     ethr =  2.55E-04,  avg # of iterations =  4.4

     negative rho (up, down):  0.000E+00 1.731E-03

     total cpu time spent up to now is     5399.3 secs

     total energy              =   -2738.42753452 Ry
     estimated scf accuracy    <       0.80761699 Ry

     total magnetization       =    16.00 Bohr mag/cell
     absolute magnetization    =    16.07 Bohr mag/cell

     iteration #  3     ecut=    60.00 Ry     beta= 0.30
     Davidson diagonalization with overlap
     ethr =  2.55E-04,  avg # of iterations =  2.0

     negative rho (up, down):  0.000E+00 1.708E-03

     total cpu time spent up to now is     5434.0 secs

     total energy              =   -2738.45529121 Ry
     estimated scf accuracy    <       0.16117856 Ry

     total magnetization       =    16.00 Bohr mag/cell
     absolute magnetization    =    16.11 Bohr mag/cell

     iteration #  4     ecut=    60.00 Ry     beta= 0.30
     Davidson diagonalization with overlap
     ethr =  7.46E-05,  avg # of iterations =  2.2

     negative rho (up, down):  0.000E+00 1.690E-03

     total cpu time spent up to now is     5467.9 secs

     total energy              =   -2738.45411437 Ry
     estimated scf accuracy    <       0.06035659 Ry

     total magnetization       =    16.00 Bohr mag/cell
     absolute magnetization    =    16.12 Bohr mag/cell

     iteration #  5     ecut=    60.00 Ry     beta= 0.30
     Davidson diagonalization with overlap
     ethr =  2.79E-05,  avg # of iterations =  3.8

     negative rho (up, down):  0.000E+00 1.676E-03

     total cpu time spent up to now is     5503.9 secs

     total energy              =   -2738.45373903 Ry
     estimated scf accuracy    <       0.02037444 Ry

     total magnetization       =    16.00 Bohr mag/cell
     absolute magnetization    =    16.13 Bohr mag/cell

     iteration #  6     ecut=    60.00 Ry     beta= 0.30
     Davidson diagonalization with overlap
     ethr =  9.43E-06,  avg # of iterations =  4.1

     negative rho (up, down):  0.000E+00 1.670E-03

     total cpu time spent up to now is     5542.4 secs

     total energy              =   -2738.45590465 Ry
     estimated scf accuracy    <       0.00289645 Ry

     total magnetization       =    16.00 Bohr mag/cell
     absolute magnetization    =    16.13 Bohr mag/cell

     iteration #  7     ecut=    60.00 Ry     beta= 0.30
     Davidson diagonalization with overlap
     ethr =  1.34E-06,  avg # of iterations =  7.6

     negative rho (up, down):  0.000E+00 1.670E-03

     total cpu time spent up to now is     5594.6 secs

     total energy              =   -2738.45727008 Ry
     estimated scf accuracy    <       0.00020088 Ry

     total magnetization       =    16.00 Bohr mag/cell
     absolute magnetization    =    16.13 Bohr mag/cell

     iteration #  8     ecut=    60.00 Ry     beta= 0.30
     Davidson diagonalization with overlap
     ethr =  9.30E-08,  avg # of iterations =  7.5

     negative rho (up, down):  0.000E+00 1.667E-03

     total cpu time spent up to now is     5648.4 secs

     total energy              =   -2738.45747944 Ry
     estimated scf accuracy    <       0.00024409 Ry

     total magnetization       =    16.00 Bohr mag/cell
     absolute magnetization    =    16.13 Bohr mag/cell

     iteration #  9     ecut=    60.00 Ry     beta= 0.30
     Davidson diagonalization with overlap
     ethr =  9.30E-08,  avg # of iterations =  5.2

     negative rho (up, down):  0.000E+00 1.666E-03

     total cpu time spent up to now is     5686.2 secs

     total energy              =   -2738.45783598 Ry
     estimated scf accuracy    <       0.00072419 Ry

     total magnetization       =    16.00 Bohr mag/cell
     absolute magnetization    =    16.13 Bohr mag/cell

     iteration # 10     ecut=    60.00 Ry     beta= 0.30
     Davidson diagonalization with overlap
     ethr =  9.30E-08,  avg # of iterations =  4.4

     negative rho (up, down):  0.000E+00 1.667E-03

     total cpu time spent up to now is     5727.1 secs

     total energy              =   -2738.45801188 Ry
     estimated scf accuracy    <       0.00199546 Ry

     total magnetization       =    16.00 Bohr mag/cell
     absolute magnetization    =    16.13 Bohr mag/cell

     iteration # 11     ecut=    60.00 Ry     beta= 0.30
     Davidson diagonalization with overlap
     ethr =  9.30E-08,  avg # of iterations =  2.0

     negative rho (up, down):  0.000E+00 1.667E-03

     total cpu time spent up to now is     5755.0 secs

     total energy              =   -2738.45854948 Ry
     estimated scf accuracy    <       0.00229990 Ry

     total magnetization       =    16.00 Bohr mag/cell
     absolute magnetization    =    16.13 Bohr mag/cell

     iteration # 12     ecut=    60.00 Ry     beta= 0.30
     Davidson diagonalization with overlap
     ethr =  9.30E-08,  avg # of iterations =  4.4

     negative rho (up, down):  0.000E+00 1.666E-03

     total cpu time spent up to now is     5794.2 secs

     total energy              =   -2738.45757566 Ry
     estimated scf accuracy    <       0.00423090 Ry

     total magnetization       =    16.00 Bohr mag/cell
     absolute magnetization    =    16.14 Bohr mag/cell

     iteration # 13     ecut=    60.00 Ry     beta= 0.30
     Davidson diagonalization with overlap
     ethr =  9.30E-08,  avg # of iterations =  5.2

     negative rho (up, down):  0.000E+00 1.666E-03

     total cpu time spent up to now is     5846.9 secs

     total energy              =   -2738.45716688 Ry
     estimated scf accuracy    <       0.00155372 Ry

     total magnetization       =    16.00 Bohr mag/cell
     absolute magnetization    =    16.13 Bohr mag/cell

     iteration # 14     ecut=    60.00 Ry     beta= 0.30
     Davidson diagonalization with overlap
     ethr =  9.30E-08,  avg # of iterations =  5.9

     negative rho (up, down):  0.000E+00 1.666E-03

     total cpu time spent up to now is     5911.6 secs

     total energy              =   -2738.45728666 Ry
     estimated scf accuracy    <       0.00013558 Ry

     total magnetization       =    16.00 Bohr mag/cell
     absolute magnetization    =    16.13 Bohr mag/cell

     iteration # 15     ecut=    60.00 Ry     beta= 0.30
     Davidson diagonalization with overlap
     ethr =  6.28E-08,  avg # of iterations =  3.8

     negative rho (up, down):  0.000E+00 1.665E-03

     total cpu time spent up to now is     5950.7 secs

     total energy              =   -2738.45733100 Ry
     estimated scf accuracy    <       0.00000448 Ry

     total magnetization       =    16.00 Bohr mag/cell
     absolute magnetization    =    16.13 Bohr mag/cell

     iteration # 16     ecut=    60.00 Ry     beta= 0.30
     Davidson diagonalization with overlap
     c_bands:  1 eigenvalues not converged
     ethr =  2.07E-09,  avg # of iterations = 13.4

     negative rho (up, down):  0.000E+00 1.666E-03

     total cpu time spent up to now is     6069.8 secs

     total energy              =   -2738.45725933 Ry
     estimated scf accuracy    <       0.00038811 Ry

     total magnetization       =    16.00 Bohr mag/cell
     absolute magnetization    =    16.12 Bohr mag/cell

     iteration # 17     ecut=    60.00 Ry     beta= 0.30
     Davidson diagonalization with overlap
     c_bands:  1 eigenvalues not converged
     ethr =  2.07E-09,  avg # of iterations = 10.9

     negative rho (up, down):  0.000E+00 1.666E-03

     total cpu time spent up to now is     6172.4 secs

     total energy              =   -2738.45732948 Ry
     estimated scf accuracy    <       0.00000068 Ry

     total magnetization       =    16.00 Bohr mag/cell
     absolute magnetization    =    16.13 Bohr mag/cell

     iteration # 18     ecut=    60.00 Ry     beta= 0.30
     Davidson diagonalization with overlap
     c_bands:  1 eigenvalues not converged
     ethr =  3.15E-10,  avg # of iterations =  7.0

     negative rho (up, down):  0.000E+00 1.666E-03

     total cpu time spent up to now is     6221.9 secs

     total energy              =   -2738.45732979 Ry
     estimated scf accuracy    <       0.00000013 Ry

     total magnetization       =    16.00 Bohr mag/cell
     absolute magnetization    =    16.13 Bohr mag/cell

     iteration # 19     ecut=    60.00 Ry     beta= 0.30
     Davidson diagonalization with overlap
     c_bands:  1 eigenvalues not converged
     ethr =  6.17E-11,  avg # of iterations =  8.5

     negative rho (up, down):  0.000E+00 1.666E-03

     Magnetic moment per site:
     atom:    1    charge:   13.3621    magn:    3.3488    constr:    0.0000
     atom:    2    charge:   13.3621    magn:    3.3488    constr:    0.0000
     atom:    3    charge:   13.3621    magn:    3.3488    constr:    0.0000
     atom:    4    charge:   13.3621    magn:    3.3488    constr:    0.0000
     atom:    5    charge:    8.0739    magn:    0.0010    constr:    0.0000
     atom:    6    charge:    8.0739    magn:    0.0010    constr:    0.0000
     atom:    7    charge:    8.0739    magn:    0.0010    constr:    0.0000
     atom:    8    charge:    8.0739    magn:    0.0010    constr:    0.0000
     atom:    9    charge:    0.3894    magn:    0.0015    constr:    0.0000
     atom:   10    charge:    0.3894    magn:    0.0015    constr:    0.0000
     atom:   11    charge:    0.3894    magn:    0.0015    constr:    0.0000
     atom:   12    charge:    0.3894    magn:    0.0015    constr:    0.0000
     atom:   13    charge:    4.0359    magn:    0.0789    constr:    0.0000
     atom:   14    charge:    4.0359    magn:    0.0789    constr:    0.0000
     atom:   15    charge:    4.0359    magn:    0.0789    constr:    0.0000
     atom:   16    charge:    4.0359    magn:    0.0789    constr:    0.0000
     atom:   17    charge:    4.0348    magn:    0.0817    constr:    0.0000
     atom:   18    charge:    4.0348    magn:    0.0817    constr:    0.0000
     atom:   19    charge:    4.0348    magn:    0.0817    constr:    0.0000
     atom:   20    charge:    4.0348    magn:    0.0817    constr:    0.0000
     atom:   21    charge:    4.0340    magn:    0.0457    constr:    0.0000
     atom:   22    charge:    4.0340    magn:    0.0457    constr:    0.0000
     atom:   23    charge:    4.0340    magn:    0.0457    constr:    0.0000
     atom:   24    charge:    4.0340    magn:    0.0457    constr:    0.0000
     atom:   25    charge:    4.0340    magn:    0.0457    constr:    0.0000
     atom:   26    charge:    4.0340    magn:    0.0457    constr:    0.0000
     atom:   27    charge:    4.0340    magn:    0.0457    constr:    0.0000
     atom:   28    charge:    4.0340    magn:    0.0457    constr:    0.0000

     total cpu time spent up to now is     6285.4 secs

     End of self-consistent calculation

 ------ SPIN UP ------------


          k = 0.0000 0.0000 0.0000 ( 15339 PWs)   bands (ev):

   -80.1368 -80.1367 -80.1349 -80.1349 -66.0552 -66.0552 -66.0551 -66.0551
   -46.7214 -46.7214 -46.7159 -46.7159 -46.0542 -46.0541 -46.0518 -46.0518
   -45.8216 -45.8216 -45.7934 -45.7934 -32.8261 -32.8261 -32.8242 -32.8242
   -32.7978 -32.7977 -32.7975 -32.7975 -32.7799 -32.7799 -32.7770 -32.7769
   -12.2122 -12.0133 -11.6975 -11.5814 -10.6353 -10.5980 -10.5616 -10.5263
   -10.4504 -10.2829 -10.2459 -10.2186 -10.2039 -10.1563 -10.0609  -9.9734
     0.1565   0.2099   0.7995   0.8856   0.9279   0.9292   1.6220   1.8341
     1.8515   1.9363   2.1339   2.2965   2.3213   3.0358   3.1193   3.2054
     3.3158   3.3896   3.4600   3.4994   3.5333   3.6771   3.6872   3.7396
     3.7764   3.7814   3.8806   3.9847   4.1009   4.1168   4.2336   4.2497
     4.4656   4.4957   4.5143   4.7646   4.7697   5.0503   5.0678   5.0915
     5.0948   5.1537   5.3951   5.5372   5.6484   5.7013   5.7058   5.7104
     6.0408   6.0651   6.2591   6.3390   6.3579   6.4503   6.8680   6.8713
     7.0759   7.1529   7.2775   7.3196   7.9096   7.9777   8.0104   8.1033
     8.1204   8.3015   8.3352   8.3998  10.7546  12.6475  13.2716  14.5459
    14.9347  15.3002  15.4183  15.4418  15.4877  15.5348  15.7475  15.8822
    15.9409  16.3207

          k = 0.0000 0.0000-0.3917 ( 15392 PWs)   bands (ev):

   -80.1358 -80.1358 -80.1358 -80.1358 -66.0552 -66.0552 -66.0552 -66.0552
   -46.7186 -46.7186 -46.7186 -46.7186 -46.0530 -46.0530 -46.0530 -46.0530
   -45.8076 -45.8076 -45.8076 -45.8076 -32.8252 -32.8252 -32.8252 -32.8252
   -32.7976 -32.7976 -32.7976 -32.7976 -32.7785 -32.7785 -32.7785 -32.7785
   -11.9242 -11.9242 -11.8356 -11.8356 -10.5874 -10.5874 -10.5787 -10.5787
   -10.4221 -10.4221 -10.2378 -10.2378 -10.1084 -10.1084 -10.0408 -10.0408
     0.5193   0.5193   0.5578   0.5578   1.4373   1.4373   1.5503   1.5503
     2.1424   2.1424   2.4655   2.4655   2.7019   2.7019   3.0052   3.0052
     3.0929   3.0929   3.2257   3.2257   3.5439   3.5439   3.7757   3.7757
     3.8405   3.8405   3.8587   3.8587   4.0745   4.0745   4.1792   4.1792
     4.4117   4.4117   4.6615   4.6615   4.7460   4.7460   4.9077   4.9077
     5.0135   5.0135   5.1534   5.1534   5.5537   5.5537   5.6383   5.6383
     6.2718   6.2718   6.3670   6.3670   6.7322   6.7322   6.7905   6.7905
     7.1531   7.1531   7.2248   7.2248   7.9387   7.9387   7.9486   7.9486
     8.1808   8.1808   8.1908   8.1908  12.6151  12.6151  13.7188  13.7188
    14.4289  14.4289  15.7253  15.7253  15.8210  15.8210  16.7297  16.7298
    16.7777  16.7789

          k =-0.4900 0.0000 0.0000 ( 15374 PWs)   bands (ev):

   -80.1368 -80.1368 -80.1349 -80.1349 -66.0552 -66.0552 -66.0552 -66.0552
   -46.7214 -46.7214 -46.7159 -46.7159 -46.0542 -46.0542 -46.0518 -46.0518
   -45.8216 -45.8216 -45.7935 -45.7935 -32.8252 -32.8252 -32.8252 -32.8252
   -32.7976 -32.7976 -32.7976 -32.7976 -32.7784 -32.7784 -32.7784 -32.7784
   -11.8019 -11.8019 -11.5140 -11.5140 -10.9917 -10.9917 -10.7208 -10.7208
   -10.4180 -10.4180 -10.1781 -10.1781 -10.1184 -10.1184 -10.0904 -10.0904
     0.3865   0.3865   0.5333   0.5333   1.9295   1.9295   1.9330   1.9330
     2.2299   2.2299   2.3638   2.3638   2.4625   2.4625   2.6496   2.6496
     2.8954   2.8954   2.9326   2.9326   2.9835   2.9835   3.5383   3.5383
     3.9985   3.9985   4.0628   4.0628   4.1818   4.1818   4.4934   4.4934
     4.5280   4.5280   4.6657   4.6657   4.7680   4.7680   5.0649   5.0649
     5.1129   5.1129   5.6543   5.6543   5.7292   5.7292   6.0533   6.0533
     6.1281   6.1281   6.3766   6.3766   6.4840   6.4840   6.9004   6.9004
     7.0106   7.0106   7.2820   7.2820   7.6570   7.6570   8.0843   8.0843
     8.1998   8.1998   8.3859   8.3859  13.2788  13.2788  14.0238  14.0238
    14.3633  14.3633  14.6759  14.6759  14.8579  14.8579  15.3046  15.3046
    15.9647  15.9734

          k =-0.4900 0.0000-0.3917 ( 15436 PWs)   bands (ev):

   -80.1359 -80.1359 -80.1359 -80.1359 -66.0552 -66.0552 -66.0552 -66.0552
   -46.7187 -46.7187 -46.7186 -46.7186 -46.0530 -46.0530 -46.0530 -46.0530
   -45.8076 -45.8076 -45.8076 -45.8076 -32.8253 -32.8253 -32.8252 -32.8252
   -32.7976 -32.7976 -32.7976 -32.7976 -32.7785 -32.7785 -32.7784 -32.7784
   -11.6700 -11.6700 -11.6225 -11.6225 -10.8664 -10.8664 -10.8542 -10.8542
   -10.3813 -10.3813 -10.2808 -10.2808 -10.1015 -10.1015 -10.0881 -10.0881
     0.5525   0.5525   0.6291   0.6291   1.8904   1.8904   2.2103   2.2103
     2.3262   2.3262   2.4430   2.4430   2.5052   2.5052   2.6628   2.6628
     2.9215   2.9215   2.9669   2.9669   3.3097   3.3097   3.4074   3.4074
     3.5049   3.5049   3.8146   3.8146   4.2793   4.2793   4.4330   4.4330
     4.5621   4.5621   4.6153   4.6153   4.6859   4.6859   4.9012   4.9012
     5.1686   5.1686   5.2740   5.2740   5.4670   5.4670   5.6823   5.6823
     6.3421   6.3421   6.3871   6.3871   6.7786   6.7786   6.7952   6.7952
     7.1340   7.1340   7.1689   7.1689   7.8480   7.8480   7.8817   7.8817
     8.2055   8.2055   8.2185   8.2185  14.1946  14.1946  14.3165  14.3165
    14.8874  14.8874  14.9379  14.9379  15.1120  15.1120  15.4094  15.4094
    16.2567  16.2567

 ------ SPIN DOWN ----------


          k = 0.0000 0.0000 0.0000 ( 15339 PWs)   bands (ev):

   -76.0088 -76.0086 -76.0067 -76.0066 -66.0544 -66.0544 -66.0543 -66.0543
   -42.3116 -42.3116 -42.3043 -42.3043 -42.1149 -42.1149 -42.1117 -42.1116
   -42.0864 -42.0864 -42.0520 -42.0520 -32.8256 -32.8255 -32.8236 -32.8236
   -32.7967 -32.7966 -32.7963 -32.7963 -32.7788 -32.7788 -32.7758 -32.7758
   -12.0870 -11.8814 -11.5820 -11.4582 -10.4796 -10.4333 -10.3986 -10.3610
   -10.3231 -10.1531 -10.1449 -10.0766 -10.0661 -10.0612  -9.9585  -9.8772
     0.3737   0.3839   0.9077   0.9802   1.0618   1.1404   1.9083   1.9203
     1.9496   2.2704   2.4039   2.4214   2.5844   3.1759   3.2015   3.4154
     3.6354   3.7479   3.9277   3.9364   3.9420   4.0331   4.0920   4.0989
     4.1034   4.2716   4.2957   4.3196   4.5357   4.5634   4.5865   4.6642
     4.8214   4.9487   4.9562   5.1069   5.1675   5.1933   5.2046   5.2752
     5.5153   5.6502   5.7573   5.7859   5.8203   5.8409   5.8761   5.9665
     9.0645   9.1094   9.2813   9.3813   9.6167   9.6750   9.9104  10.0109
    10.1040  10.1760  10.4030  10.4076  11.0766  11.2232  11.3161  11.3647
    11.4110  11.4729  11.5244  11.5381  11.6003  13.1346  13.3952  14.6556
    15.1023  15.5774  15.6480  15.6495  15.6621  15.7698  15.8569  16.0518
    16.2086  16.8369

          k = 0.0000 0.0000-0.3917 ( 15392 PWs)   bands (ev):

   -76.0078 -76.0078 -76.0078 -76.0078 -66.0544 -66.0544 -66.0544 -66.0544
   -42.3079 -42.3079 -42.3079 -42.3079 -42.1133 -42.1133 -42.1132 -42.1132
   -42.0694 -42.0694 -42.0694 -42.0694 -32.8246 -32.8246 -32.8246 -32.8246
   -32.7965 -32.7965 -32.7965 -32.7965 -32.7774 -32.7774 -32.7774 -32.7774
   -11.7994 -11.7994 -11.7097 -11.7097 -10.4233 -10.4233 -10.4173 -10.4173
   -10.3072 -10.3072 -10.1109 -10.1109 -10.0025 -10.0025  -9.9272  -9.9272
     0.6811   0.6811   0.7353   0.7353   1.6016   1.6016   1.6675   1.6675
     2.3212   2.3212   2.6810   2.6810   2.9422   2.9422   3.2379   3.2379
     3.4561   3.4561   3.6752   3.6752   3.9317   3.9317   4.0153   4.0153
     4.1996   4.1996   4.2209   4.2209   4.5370   4.5370   4.5387   4.5387
     4.9311   4.9311   4.9421   4.9421   5.1644   5.1644   5.2035   5.2035
     5.2415   5.2415   5.4952   5.4952   5.8786   5.8786   5.8805   5.8805
     9.4515   9.4515   9.5064   9.5064   9.7725   9.7725   9.7728   9.7728
    10.0662  10.0662  10.1417  10.1417  11.2157  11.2157  11.2442  11.2442
    11.5143  11.5143  11.5507  11.5507  12.9167  12.9167  14.0640  14.0640
    14.6174  14.6174  15.9287  15.9287  16.1564  16.1564  16.9675  16.9747
    17.0265  17.0276

          k =-0.4900 0.0000 0.0000 ( 15374 PWs)   bands (ev):

   -76.0088 -76.0088 -76.0067 -76.0067 -66.0544 -66.0544 -66.0544 -66.0544
   -42.3117 -42.3117 -42.3043 -42.3043 -42.1149 -42.1149 -42.1116 -42.1116
   -42.0864 -42.0864 -42.0520 -42.0520 -32.8247 -32.8247 -32.8246 -32.8246
   -32.7965 -32.7965 -32.7965 -32.7965 -32.7773 -32.7773 -32.7773 -32.7773
   -11.6823 -11.6823 -11.3936 -11.3936 -10.8243 -10.8243 -10.5723 -10.5723
   -10.2735 -10.2735 -10.0400 -10.0400 -10.0167 -10.0167  -9.9949  -9.9949
     0.5429   0.5429   0.6182   0.6182   2.1107   2.1107   2.1510   2.1510
     2.4924   2.4924   2.5571   2.5571   2.7786   2.7786   2.9318   2.9318
     3.1738   3.1738   3.2000   3.2000   3.2900   3.2900   3.7682   3.7682
     4.3007   4.3007   4.4881   4.4881   4.7587   4.7587   4.8007   4.8007
     5.0036   5.0036   5.0499   5.0499   5.3113   5.3113   5.3203   5.3203
     5.5376   5.5376   5.8299   5.8299   5.9068   5.9068   6.2306   6.2306
     9.1372   9.1372   9.2802   9.2802   9.6480   9.6480   9.9857   9.9857
    10.2122  10.2122  10.4288  10.4288  11.0177  11.0177  11.2564  11.2564
    11.5347  11.5347  11.6214  11.6214  13.4714  13.4714  14.2132  14.2132
    14.7037  14.7037  14.8388  14.8388  15.0167  15.0167  15.6630  15.6630
    16.2893  16.2893

          k =-0.4900 0.0000-0.3917 ( 15436 PWs)   bands (ev):

   -76.0078 -76.0078 -76.0078 -76.0078 -66.0544 -66.0544 -66.0544 -66.0544
   -42.3079 -42.3079 -42.3079 -42.3079 -42.1133 -42.1133 -42.1133 -42.1133
   -42.0694 -42.0694 -42.0694 -42.0694 -32.8247 -32.8247 -32.8247 -32.8247
   -32.7965 -32.7965 -32.7965 -32.7965 -32.7773 -32.7773 -32.7773 -32.7773
   -11.5492 -11.5492 -11.4999 -11.4999 -10.7063 -10.7063 -10.7002 -10.7002
   -10.2445 -10.2445 -10.1548 -10.1548  -9.9903  -9.9903  -9.9839  -9.9839
     0.6754   0.6754   0.7664   0.7664   2.2003   2.2003   2.4792   2.4792
     2.5787   2.5787   2.6755   2.6755   2.7101   2.7101   2.8893   2.8893
     3.1427   3.1427   3.1674   3.1674   3.5584   3.5584   3.6185   3.6185
     3.7656   3.7656   4.1851   4.1851   4.7131   4.7131   4.7481   4.7481
     4.8573   4.8573   5.2791   5.2791   5.2973   5.2973   5.3918   5.3918
     5.5074   5.5074   5.6208   5.6208   5.7969   5.7969   5.9000   5.9000
     9.4190   9.4190   9.4467   9.4467   9.8443   9.8443   9.8505   9.8505
    10.1075  10.1075  10.1219  10.1219  11.0737  11.0737  11.0868  11.0868
    11.4387  11.4387  11.4428  11.4428  14.4783  14.4783  14.6430  14.6430
    15.1459  15.1459  15.2656  15.2656  15.4221  15.4221  15.7752  15.7752
    16.4330  16.4332

     the Fermi energy is     9.5740 ev

!    total energy              =   -2738.45732989 Ry

     total all-electron energy =    -16515.658240 Ry
     estimated scf accuracy    <       0.00000008 Ry
     smearing contrib. (-TS)   =      -0.00529814 Ry
     internal energy E=F+TS    =   -2738.45203174 Ry

     The total energy is F=E-TS. E is the sum of the following terms:
     one-electron contribution =   -1256.14562239 Ry
     hartree contribution      =     728.18674742 Ry
     xc contribution           =    -328.23140182 Ry
     ewald contribution        =   -1195.78056206 Ry
     one-center paw contrib.   =    -686.48119290 Ry

     total magnetization       =    16.00 Bohr mag/cell
     absolute magnetization    =    16.13 Bohr mag/cell

     convergence has been achieved in  19 iterations

     negative rho (up, down):  0.000E+00 1.666E-03

     Forces acting on atoms (cartesian axes, Ry/au):

     atom    1 type  1   force =     0.00000000    0.00000000   -0.00000000
     atom    2 type  1   force =    -0.00000000    0.00000000   -0.00000000
     atom    3 type  1   force =     0.00000000    0.00000000   -0.00000000
     atom    4 type  1   force =     0.00000000    0.00000000   -0.00000000
     atom    5 type  2   force =     0.00161209   -0.00409301    0.00000000
     atom    6 type  2   force =    -0.00161209    0.00409301   -0.00000000
     atom    7 type  2   force =     0.00161209    0.00409301   -0.00000000
     atom    8 type  2   force =    -0.00161209   -0.00409301    0.00000000
     atom    9 type  3   force =    -0.00209096   -0.00125702    0.00000000
     atom   10 type  3   force =     0.00209096    0.00125702    0.00000000
     atom   11 type  3   force =    -0.00209096    0.00125702    0.00000000
     atom   12 type  3   force =     0.00209096   -0.00125702    0.00000000
     atom   13 type  4   force =     0.00261443    0.01698907   -0.00000000
     atom   14 type  4   force =    -0.00261443   -0.01698907    0.00000000
     atom   15 type  4   force =     0.00261443   -0.01698907    0.00000000
     atom   16 type  4   force =    -0.00261443    0.01698907    0.00000000
     atom   17 type  4   force =     0.00722468    0.00127571    0.00000000
     atom   18 type  4   force =    -0.00722468   -0.00127571    0.00000000
     atom   19 type  4   force =     0.00722468   -0.00127571    0.00000000
     atom   20 type  4   force =    -0.00722468    0.00127571    0.00000000
     atom   21 type  4   force =    -0.00348585   -0.00824044    0.00757261
     atom   22 type  4   force =     0.00348585    0.00824044   -0.00757261
     atom   23 type  4   force =    -0.00348585    0.00824044   -0.00757261
     atom   24 type  4   force =     0.00348585   -0.00824044    0.00757261
     atom   25 type  4   force =     0.00348585    0.00824044    0.00757261
     atom   26 type  4   force =    -0.00348585   -0.00824044   -0.00757261
     atom   27 type  4   force =     0.00348585   -0.00824044   -0.00757261
     atom   28 type  4   force =    -0.00348585    0.00824044    0.00757261

     Total force =     0.050966     Total SCF correction =     0.000496


     Computing stress (Cartesian axis) and pressure


     negative rho (up, down):  0.000E+00 1.666E-03
          total   stress  (Ry/bohr**3)                   (kbar)     P=        1.44
   0.00006813   0.00000000   0.00000000           10.02        0.00        0.00
   0.00000000   0.00004517   0.00000000            0.00        6.65        0.00
   0.00000000   0.00000000  -0.00008397            0.00        0.00      -12.35

     Energy error            =      1.3E-02
     Gradient error          =      1.7E-02
     Cell gradient error     =      8.4E-05


     number of scf cycles    =   5
     number of bfgs steps    =   4

     enthalpy old            =   -2738.4446703756 Ry
     enthalpy new            =   -2738.4573298860 Ry

     CASE: enthalpy_new < enthalpy_old

     new trust radius        =       0.0355143588 bohr
     new conv_thr            =       0.0000001000 Ry

     new unit-cell volume =   2060.75883 a.u.^3 (   305.37295 Ang^3 )
     density =      3.74619 g/cm^3

CELL_PARAMETERS (angstrom)
   4.860789540   0.000000000   0.000000000
   0.000000000  10.392493111   0.000000000
   0.000000000   0.000000000   6.045107175

ATOMIC_POSITIONS (angstrom)
Fe            0.0000000000        0.0000000000       -0.0000000000
Fe            2.4303947699        5.1962465553       -0.0000000000
Fe            0.0000000000        0.0000000000        3.0225535875
Fe            2.4303947699        5.1962465553        3.0225535875
Mg            0.0689215774        2.8780017281        4.5338303812
Mg            4.7918679624        7.5144913824        1.5112767937
Mg            2.4993163472        2.3182448271        1.5112767937
Mg            2.3614731925        8.0742482834        4.5338303812
Si            0.3737134502        4.2360300821        1.5112767937
Si            4.4870760896        6.1564630285        4.5338303812
Si            2.8041082201        0.9602164732        4.5338303812
Si            2.0566813197        9.4322766374        1.5112767937
O             1.1601922485        0.9658069646        4.5338303812
O             3.7005972913        9.4266861460        1.5112767937
O             3.5905870184        4.2304395907        1.5112767937
O             1.2702025214        6.1620535198        4.5338303812
O             1.4224878323        0.5820664972        1.5112767937
O             3.4383017075        9.8104266134        4.5338303812
O             3.8528826022        4.6141800581        4.5338303812
O             1.0079069376        5.7783130525        1.5112767937
O             1.0810194950        3.4967928400        2.8127263131
O             3.7797700448        6.8957002706        3.2323808619
O             3.5114142648        1.6994537153        3.2323808619
O             1.3493752749        8.6930393953        2.8127263131
O             3.7797700448        6.8957002706        5.8352799005
O             1.0810194950        3.4967928400        0.2098272744
O             1.3493752749        8.6930393953        0.2098272744
O             3.5114142648        1.6994537153        5.8352799005



     Writing output data file ./out/oliv.save/
     NEW-OLD atomic charge density approx. for the potential

     Check: negative core charge=   -0.000006

     negative rho (up, down):  0.000E+00 1.666E-03
     extrapolated charge  215.86241, renormalised to  216.00000
     Generating pointlists ...

     total cpu time spent up to now is     6329.3 secs

     Self-consistent Calculation

     iteration #  1     ecut=    60.00 Ry     beta= 0.30
     Davidson diagonalization with overlap
     c_bands:  1 eigenvalues not converged
     ethr =  1.00E-06,  avg # of iterations = 12.0

     negative rho (up, down):  0.000E+00 1.659E-03

     total cpu time spent up to now is     6443.5 secs

     total energy              =   -2738.46094319 Ry
     estimated scf accuracy    <       0.00167500 Ry

     total magnetization       =    16.00 Bohr mag/cell
     absolute magnetization    =    16.13 Bohr mag/cell

     iteration #  2     ecut=    60.00 Ry     beta= 0.30
     Davidson diagonalization with overlap
     ethr =  7.75E-07,  avg # of iterations =  7.4

     negative rho (up, down):  0.000E+00 1.663E-03

     total cpu time spent up to now is     6492.1 secs

     total energy              =   -2738.46157288 Ry
     estimated scf accuracy    <       0.00179067 Ry

     total magnetization       =    16.00 Bohr mag/cell
     absolute magnetization    =    16.13 Bohr mag/cell

     iteration #  3     ecut=    60.00 Ry     beta= 0.30
     Davidson diagonalization with overlap
     ethr =  7.75E-07,  avg # of iterations =  2.0

     negative rho (up, down):  0.000E+00 1.665E-03

     total cpu time spent up to now is     6528.6 secs

     total energy              =   -2738.46148100 Ry
     estimated scf accuracy    <       0.00054341 Ry

     total magnetization       =    16.00 Bohr mag/cell
     absolute magnetization    =    16.13 Bohr mag/cell

     iteration #  4     ecut=    60.00 Ry     beta= 0.30
     Davidson diagonalization with overlap
     ethr =  2.52E-07,  avg # of iterations =  4.1

     negative rho (up, down):  0.000E+00 1.664E-03

     total cpu time spent up to now is     6566.9 secs

     total energy              =   -2738.46158281 Ry
     estimated scf accuracy    <       0.00004853 Ry

     total magnetization       =    16.00 Bohr mag/cell
     absolute magnetization    =    16.13 Bohr mag/cell

     iteration #  5     ecut=    60.00 Ry     beta= 0.30
     Davidson diagonalization with overlap
     ethr =  2.25E-08,  avg # of iterations =  6.2

     negative rho (up, down):  0.000E+00 1.663E-03

     total cpu time spent up to now is     6634.8 secs

     total energy              =   -2738.46161910 Ry
     estimated scf accuracy    <       0.00005161 Ry

     total magnetization       =    16.00 Bohr mag/cell
     absolute magnetization    =    16.13 Bohr mag/cell

     iteration #  6     ecut=    60.00 Ry     beta= 0.30
     Davidson diagonalization with overlap
     ethr =  2.25E-08,  avg # of iterations =  2.0

     negative rho (up, down):  0.000E+00 1.663E-03

     total cpu time spent up to now is     6669.9 secs

     total energy              =   -2738.46162801 Ry
     estimated scf accuracy    <       0.00000673 Ry

     total magnetization       =    16.00 Bohr mag/cell
     absolute magnetization    =    16.13 Bohr mag/cell

     iteration #  7     ecut=    60.00 Ry     beta= 0.30
     Davidson diagonalization with overlap
     ethr =  3.12E-09,  avg # of iterations =  7.5

     negative rho (up, down):  0.000E+00 1.663E-03

     total cpu time spent up to now is     6736.7 secs

     total energy              =   -2738.46163139 Ry
     estimated scf accuracy    <       0.00001313 Ry

     total magnetization       =    16.00 Bohr mag/cell
     absolute magnetization    =    16.13 Bohr mag/cell

     iteration #  8     ecut=    60.00 Ry     beta= 0.30
     Davidson diagonalization with overlap
     ethr =  3.12E-09,  avg # of iterations =  2.8

     negative rho (up, down):  0.000E+00 1.663E-03

     total cpu time spent up to now is     6775.7 secs

     total energy              =   -2738.46163344 Ry
     estimated scf accuracy    <       0.00000154 Ry

     total magnetization       =    16.00 Bohr mag/cell
     absolute magnetization    =    16.13 Bohr mag/cell

     iteration #  9     ecut=    60.00 Ry     beta= 0.30
     Davidson diagonalization with overlap
     ethr =  7.13E-10,  avg # of iterations =  6.0

     negative rho (up, down):  0.000E+00 1.663E-03

     total cpu time spent up to now is     6826.2 secs

     total energy              =   -2738.46163480 Ry
     estimated scf accuracy    <       0.00000179 Ry

     total magnetization       =    16.00 Bohr mag/cell
     absolute magnetization    =    16.13 Bohr mag/cell

     iteration # 10     ecut=    60.00 Ry     beta= 0.30
     Davidson diagonalization with overlap
     ethr =  7.13E-10,  avg # of iterations =  2.0

     negative rho (up, down):  0.000E+00 1.663E-03

     total cpu time spent up to now is     6856.9 secs

     total energy              =   -2738.46163529 Ry
     estimated scf accuracy    <       0.00000046 Ry

     total magnetization       =    16.00 Bohr mag/cell
     absolute magnetization    =    16.13 Bohr mag/cell

     iteration # 11     ecut=    60.00 Ry     beta= 0.30
     Davidson diagonalization with overlap
     ethr =  2.15E-10,  avg # of iterations =  6.2

     negative rho (up, down):  0.000E+00 1.663E-03

     total cpu time spent up to now is     6920.8 secs

     total energy              =   -2738.46163571 Ry
     estimated scf accuracy    <       0.00000357 Ry

     total magnetization       =    16.00 Bohr mag/cell
     absolute magnetization    =    16.13 Bohr mag/cell

     iteration # 12     ecut=    60.00 Ry     beta= 0.30
     Davidson diagonalization with overlap
     ethr =  2.15E-10,  avg # of iterations =  5.5

     negative rho (up, down):  0.000E+00 1.663E-03

     total cpu time spent up to now is     6976.2 secs

     total energy              =   -2738.46163568 Ry
     estimated scf accuracy    <       0.00000052 Ry

     total magnetization       =    16.00 Bohr mag/cell
     absolute magnetization    =    16.13 Bohr mag/cell

     iteration # 13     ecut=    60.00 Ry     beta= 0.30
     Davidson diagonalization with overlap
     ethr =  2.15E-10,  avg # of iterations =  4.2

     negative rho (up, down):  0.000E+00 1.663E-03

     Magnetic moment per site:
     atom:    1    charge:   13.3599    magn:    3.3489    constr:    0.0000
     atom:    2    charge:   13.3599    magn:    3.3489    constr:    0.0000
     atom:    3    charge:   13.3599    magn:    3.3489    constr:    0.0000
     atom:    4    charge:   13.3599    magn:    3.3489    constr:    0.0000
     atom:    5    charge:    8.0763    magn:    0.0010    constr:    0.0000
     atom:    6    charge:    8.0763    magn:    0.0010    constr:    0.0000
     atom:    7    charge:    8.0763    magn:    0.0010    constr:    0.0000
     atom:    8    charge:    8.0763    magn:    0.0010    constr:    0.0000
     atom:    9    charge:    0.3881    magn:    0.0014    constr:    0.0000
     atom:   10    charge:    0.3881    magn:    0.0014    constr:    0.0000
     atom:   11    charge:    0.3881    magn:    0.0014    constr:    0.0000
     atom:   12    charge:    0.3881    magn:    0.0014    constr:    0.0000
     atom:   13    charge:    4.0351    magn:    0.0793    constr:    0.0000
     atom:   14    charge:    4.0351    magn:    0.0793    constr:    0.0000
     atom:   15    charge:    4.0351    magn:    0.0793    constr:    0.0000
     atom:   16    charge:    4.0351    magn:    0.0793    constr:    0.0000
     atom:   17    charge:    4.0341    magn:    0.0818    constr:    0.0000
     atom:   18    charge:    4.0341    magn:    0.0818    constr:    0.0000
     atom:   19    charge:    4.0341    magn:    0.0818    constr:    0.0000
     atom:   20    charge:    4.0341    magn:    0.0818    constr:    0.0000
     atom:   21    charge:    4.0326    magn:    0.0458    constr:    0.0000
     atom:   22    charge:    4.0326    magn:    0.0458    constr:    0.0000
     atom:   23    charge:    4.0326    magn:    0.0458    constr:    0.0000
     atom:   24    charge:    4.0326    magn:    0.0458    constr:    0.0000
     atom:   25    charge:    4.0326    magn:    0.0458    constr:    0.0000
     atom:   26    charge:    4.0326    magn:    0.0458    constr:    0.0000
     atom:   27    charge:    4.0326    magn:    0.0458    constr:    0.0000
     atom:   28    charge:    4.0326    magn:    0.0458    constr:    0.0000

     total cpu time spent up to now is     7030.6 secs

     End of self-consistent calculation

 ------ SPIN UP ------------


          k = 0.0000 0.0000 0.0000 ( 15339 PWs)   bands (ev):

   -80.1817 -80.1816 -80.1797 -80.1797 -65.9938 -65.9938 -65.9937 -65.9937
   -46.7634 -46.7634 -46.7580 -46.7580 -46.1020 -46.1020 -46.0996 -46.0995
   -45.8645 -45.8645 -45.8349 -45.8349 -32.7644 -32.7644 -32.7624 -32.7624
   -32.7378 -32.7377 -32.7374 -32.7374 -32.7187 -32.7187 -32.7156 -32.7156
   -12.1935 -11.9915 -11.6723 -11.5531 -10.6294 -10.6110 -10.5499 -10.5116
   -10.4338 -10.2853 -10.2209 -10.2179 -10.2027 -10.1314 -10.0304  -9.9460
     0.1773   0.2172   0.8096   0.8908   0.9246   0.9340   1.6186   1.8312
     1.8642   1.9387   2.1538   2.2909   2.3204   3.0473   3.1097   3.2237
     3.3276   3.4021   3.4531   3.4910   3.5656   3.6733   3.7126   3.7442
     3.7669   3.7813   3.9097   3.9983   4.1404   4.1494   4.2464   4.2468
     4.4639   4.4954   4.5160   4.7521   4.7824   5.0380   5.0828   5.1081
     5.1282   5.1708   5.4105   5.5672   5.6448   5.7016   5.7191   5.7297
     5.9878   6.0119   6.2169   6.2910   6.3081   6.4121   6.8498   6.8542
     7.0213   7.0999   7.2409   7.2834   7.8482   7.9387   7.9742   8.0421
     8.0682   8.2480   8.2781   8.3375  10.7495  12.6133  13.3141  14.5870
    14.8773  15.2598  15.3979  15.4665  15.5229  15.6551  15.6872  15.9062
    15.9296  16.2858

          k = 0.0000 0.0000-0.3932 ( 15392 PWs)   bands (ev):

   -80.1807 -80.1807 -80.1807 -80.1807 -65.9938 -65.9938 -65.9937 -65.9937
   -46.7607 -46.7607 -46.7607 -46.7607 -46.1008 -46.1008 -46.1008 -46.1008
   -45.8498 -45.8498 -45.8498 -45.8498 -32.7634 -32.7634 -32.7634 -32.7634
   -32.7376 -32.7376 -32.7376 -32.7376 -32.7172 -32.7172 -32.7172 -32.7172
   -11.9012 -11.9012 -11.8108 -11.8108 -10.5916 -10.5916 -10.5693 -10.5693
   -10.4036 -10.4036 -10.2359 -10.2359 -10.0845 -10.0845 -10.0214 -10.0214
     0.5294   0.5294   0.5774   0.5774   1.4404   1.4404   1.5491   1.5491
     2.1561   2.1561   2.4752   2.4752   2.7142   2.7142   3.0182   3.0182
     3.1046   3.1046   3.2248   3.2248   3.5339   3.5339   3.8052   3.8052
     3.8565   3.8565   3.8771   3.8771   4.0780   4.0780   4.1818   4.1818
     4.4144   4.4144   4.6708   4.6708   4.7442   4.7442   4.9040   4.9040
     5.0196   5.0196   5.1717   5.1717   5.5561   5.5561   5.6303   5.6303
     6.2271   6.2271   6.3225   6.3225   6.7002   6.7002   6.7613   6.7613
     7.1075   7.1075   7.1787   7.1787   7.8961   7.8961   7.9077   7.9077
     8.1225   8.1225   8.1281   8.1281  12.6185  12.6185  13.7015  13.7015
    14.4675  14.4675  15.7264  15.7264  15.7732  15.7732  16.6995  16.6995
    16.7878  16.7886

          k =-0.4890 0.0000 0.0000 ( 15374 PWs)   bands (ev):

   -80.1817 -80.1817 -80.1797 -80.1797 -65.9938 -65.9938 -65.9937 -65.9937
   -46.7635 -46.7635 -46.7580 -46.7580 -46.1020 -46.1020 -46.0995 -46.0995
   -45.8645 -45.8645 -45.8349 -45.8349 -32.7635 -32.7635 -32.7634 -32.7634
   -32.7376 -32.7376 -32.7376 -32.7376 -32.7171 -32.7171 -32.7171 -32.7171
   -11.7891 -11.7891 -11.4916 -11.4916 -10.9708 -10.9708 -10.6977 -10.6977
   -10.4245 -10.4245 -10.1852 -10.1852 -10.0898 -10.0898 -10.0639 -10.0639
     0.3874   0.3874   0.5272   0.5272   1.9390   1.9390   1.9415   1.9415
     2.2397   2.2397   2.3659   2.3659   2.4787   2.4787   2.6580   2.6580
     2.9029   2.9029   2.9494   2.9494   2.9738   2.9738   3.5620   3.5620
     3.9991   3.9991   4.0967   4.0967   4.1907   4.1907   4.4869   4.4869
     4.5482   4.5482   4.6650   4.6650   4.7890   4.7890   5.0598   5.0598
     5.1331   5.1331   5.6373   5.6373   5.7432   5.7432   6.0656   6.0656
     6.0764   6.0764   6.3406   6.3406   6.4393   6.4393   6.8848   6.8848
     6.9587   6.9587   7.2443   7.2443   7.6104   7.6104   8.0341   8.0341
     8.1590   8.1590   8.3205   8.3205  13.2876  13.2876  14.0313  14.0313
    14.3110  14.3110  14.6513  14.6513  14.8892  14.8892  15.2754  15.2754
    15.9115  15.9118

          k =-0.4890 0.0000-0.3932 ( 15436 PWs)   bands (ev):

   -80.1807 -80.1807 -80.1807 -80.1807 -65.9938 -65.9938 -65.9938 -65.9938
   -46.7607 -46.7607 -46.7607 -46.7607 -46.1008 -46.1008 -46.1008 -46.1008
   -45.8498 -45.8498 -45.8498 -45.8498 -32.7635 -32.7635 -32.7635 -32.7635
   -32.7376 -32.7376 -32.7376 -32.7376 -32.7172 -32.7172 -32.7171 -32.7171
   -11.6523 -11.6523 -11.6050 -11.6050 -10.8442 -10.8442 -10.8296 -10.8296
   -10.3873 -10.3873 -10.2799 -10.2799 -10.0831 -10.0831 -10.0642 -10.0642
     0.5512   0.5512   0.6301   0.6301   1.9053   1.9053   2.2164   2.2164
     2.3271   2.3271   2.4496   2.4496   2.5107   2.5107   2.6660   2.6660
     2.9552   2.9552   2.9873   2.9873   3.3386   3.3386   3.4311   3.4311
     3.5089   3.5089   3.8324   3.8324   4.2827   4.2827   4.4507   4.4507
     4.5673   4.5673   4.6026   4.6026   4.6861   4.6861   4.8940   4.8940
     5.1622   5.1622   5.2756   5.2756   5.4736   5.4736   5.6777   5.6777
     6.2990   6.2990   6.3443   6.3443   6.7463   6.7463   6.7622   6.7622
     7.0894   7.0894   7.1230   7.1230   7.8083   7.8083   7.8426   7.8426
     8.1484   8.1484   8.1592   8.1592  14.2195  14.2195  14.2905  14.2905
    14.8382  14.8382  14.8635  14.8635  15.1466  15.1466  15.4016  15.4016
    16.2598  16.2598

 ------ SPIN DOWN ----------


          k = 0.0000 0.0000 0.0000 ( 15339 PWs)   bands (ev):

   -76.0535 -76.0534 -76.0513 -76.0513 -65.9930 -65.9930 -65.9929 -65.9929
   -42.3526 -42.3526 -42.3452 -42.3452 -42.1601 -42.1601 -42.1568 -42.1568
   -42.1321 -42.1321 -42.0961 -42.0960 -32.7638 -32.7638 -32.7618 -32.7618
   -32.7367 -32.7366 -32.7363 -32.7363 -32.7175 -32.7175 -32.7145 -32.7144
   -12.0678 -11.8589 -11.5565 -11.4292 -10.4707 -10.4453 -10.3845 -10.3433
   -10.3070 -10.1586 -10.1172 -10.0820 -10.0678 -10.0364  -9.9283  -9.8498
     0.3869   0.3932   0.9159   0.9828   1.0584   1.1497   1.9057   1.9168
     1.9635   2.2747   2.4020   2.4439   2.5792   3.1896   3.1904   3.4289
     3.6281   3.7665   3.9189   3.9381   3.9825   4.0589   4.0843   4.1051
     4.1191   4.2551   4.3216   4.3319   4.5283   4.6126   4.6255   4.6836
     4.8253   4.9429   4.9628   5.1300   5.1799   5.1928   5.2095   5.3085
     5.5292   5.6808   5.7828   5.8009   5.8210   5.8456   5.8845   5.9849
     9.0091   9.0518   9.2248   9.3253   9.5837   9.6384   9.8697   9.9721
    10.0598  10.1296  10.3771  10.3785  11.0756  11.1700  11.2613  11.3090
    11.3644  11.4192  11.4568  11.4739  11.5343  13.1010  13.4397  14.7061
    15.0481  15.5355  15.6281  15.6812  15.7675  15.7921  15.8144  16.1023
    16.1888  16.8682

          k = 0.0000 0.0000-0.3932 ( 15392 PWs)   bands (ev):

   -76.0525 -76.0525 -76.0525 -76.0525 -65.9929 -65.9929 -65.9929 -65.9929
   -42.3489 -42.3489 -42.3488 -42.3488 -42.1585 -42.1585 -42.1585 -42.1585
   -42.1143 -42.1143 -42.1143 -42.1143 -32.7628 -32.7628 -32.7628 -32.7628
   -32.7365 -32.7365 -32.7365 -32.7365 -32.7161 -32.7161 -32.7161 -32.7161
   -11.7759 -11.7759 -11.6843 -11.6843 -10.4274 -10.4274 -10.4050 -10.4050
   -10.2874 -10.2874 -10.1099 -10.1099  -9.9807  -9.9807  -9.9094  -9.9094
     0.6885   0.6885   0.7527   0.7527   1.6068   1.6068   1.6675   1.6675
     2.3351   2.3351   2.6917   2.6917   2.9540   2.9540   3.2496   3.2496
     3.4553   3.4553   3.6677   3.6677   3.9312   3.9312   4.0439   4.0439
     4.2197   4.2197   4.2476   4.2476   4.5302   4.5302   4.5573   4.5573
     4.9441   4.9441   4.9460   4.9460   5.1810   5.1810   5.2218   5.2218
     5.2418   5.2418   5.5090   5.5090   5.8784   5.8784   5.8812   5.8812
     9.4051   9.4051   9.4587   9.4587   9.7291   9.7291   9.7312   9.7312
    10.0231  10.0231  10.0978  10.0978  11.1691  11.1691  11.1964  11.1964
    11.4499  11.4499  11.4840  11.4840  12.9268  12.9268  14.0565  14.0565
    14.6557  14.6557  15.9454  15.9454  16.1130  16.1130  16.8991  16.8992
    17.0596  17.0678

          k =-0.4890 0.0000 0.0000 ( 15374 PWs)   bands (ev):

   -76.0536 -76.0536 -76.0513 -76.0513 -65.9929 -65.9929 -65.9929 -65.9929
   -42.3526 -42.3526 -42.3452 -42.3452 -42.1601 -42.1601 -42.1568 -42.1568
   -42.1321 -42.1321 -42.0961 -42.0961 -32.7629 -32.7629 -32.7629 -32.7629
   -32.7365 -32.7365 -32.7365 -32.7365 -32.7160 -32.7160 -32.7160 -32.7160
   -11.6686 -11.6686 -11.3700 -11.3700 -10.8022 -10.8022 -10.5484 -10.5484
   -10.2817 -10.2817 -10.0484 -10.0484  -9.9884  -9.9884  -9.9684  -9.9684
     0.5399   0.5399   0.6127   0.6127   2.1164   2.1164   2.1614   2.1614
     2.4999   2.4999   2.5689   2.5689   2.7966   2.7966   2.9295   2.9295
     3.1841   3.1841   3.1945   3.1945   3.3068   3.3068   3.7930   3.7930
     4.3117   4.3117   4.5130   4.5130   4.7822   4.7822   4.8091   4.8091
     5.0363   5.0363   5.0489   5.0489   5.3127   5.3127   5.3235   5.3235
     5.5671   5.5671   5.8146   5.8146   5.9211   5.9211   6.2436   6.2436
     9.0792   9.0792   9.2272   9.2272   9.6126   9.6126   9.9461   9.9461
    10.1663  10.1663  10.4054  10.4054  10.9691  10.9691  11.2022  11.2022
    11.4843  11.4843  11.5529  11.5529  13.4913  13.4913  14.2142  14.2142
    14.6798  14.6798  14.8151  14.8151  15.0269  15.0269  15.6268  15.6268
    16.3252  16.3252

          k =-0.4890 0.0000-0.3932 ( 15436 PWs)   bands (ev):

   -76.0525 -76.0525 -76.0525 -76.0525 -65.9930 -65.9930 -65.9929 -65.9929
   -42.3489 -42.3489 -42.3489 -42.3489 -42.1585 -42.1585 -42.1585 -42.1585
   -42.1143 -42.1143 -42.1143 -42.1143 -32.7629 -32.7629 -32.7629 -32.7629
   -32.7365 -32.7365 -32.7365 -32.7365 -32.7160 -32.7160 -32.7160 -32.7160
   -11.5305 -11.5305 -11.4813 -11.4813 -10.6830 -10.6830 -10.6741 -10.6741
   -10.2521 -10.2521 -10.1526 -10.1526  -9.9750  -9.9750  -9.9608  -9.9608
     0.6723   0.6723   0.7652   0.7652   2.2197   2.2197   2.4859   2.4859
     2.5793   2.5793   2.6779   2.6779   2.7181   2.7181   2.8896   2.8896
     3.1728   3.1728   3.1896   3.1896   3.5843   3.5843   3.6443   3.6443
     3.7735   3.7735   4.2103   4.2103   4.7193   4.7193   4.7504   4.7504
     4.8777   4.8777   5.2844   5.2844   5.3015   5.3015   5.3830   5.3830
     5.5091   5.5091   5.6246   5.6246   5.8087   5.8087   5.9020   5.9020
     9.3734   9.3734   9.3994   9.3994   9.8017   9.8017   9.8080   9.8080
    10.0643  10.0643  10.0784  10.0784  11.0322  11.0322  11.0445  11.0445
    11.3751  11.3751  11.3773  11.3773  14.5179  14.5179  14.6327  14.6327
    15.1386  15.1386  15.2033  15.2033  15.4075  15.4075  15.7623  15.7623
    16.4387  16.4389

     the Fermi energy is     9.5319 ev

!    total energy              =   -2738.46163609 Ry

     total all-electron energy =    -16515.662546 Ry
     estimated scf accuracy    <       0.00000007 Ry
     smearing contrib. (-TS)   =      -0.00501531 Ry
     internal energy E=F+TS    =   -2738.45662077 Ry

     The total energy is F=E-TS. E is the sum of the following terms:
     one-electron contribution =   -1252.66500328 Ry
     hartree contribution      =     726.45405348 Ry
     xc contribution           =    -328.19257423 Ry
     ewald contribution        =   -1197.57315993 Ry
     one-center paw contrib.   =    -686.47993681 Ry

     total magnetization       =    16.00 Bohr mag/cell
     absolute magnetization    =    16.13 Bohr mag/cell

     convergence has been achieved in  13 iterations

     negative rho (up, down):  0.000E+00 1.663E-03

     Forces acting on atoms (cartesian axes, Ry/au):

     atom    1 type  1   force =     0.00000000    0.00000000   -0.00000000
     atom    2 type  1   force =    -0.00000000    0.00000000   -0.00000000
     atom    3 type  1   force =     0.00000000    0.00000000   -0.00000000
     atom    4 type  1   force =     0.00000000    0.00000000    0.00000000
     atom    5 type  2   force =     0.00075234   -0.00444838    0.00000000
     atom    6 type  2   force =    -0.00075234    0.00444838   -0.00000000
     atom    7 type  2   force =     0.00075234    0.00444838   -0.00000000
     atom    8 type  2   force =    -0.00075234   -0.00444838    0.00000000
     atom    9 type  3   force =    -0.00335091   -0.00771268    0.00000000
     atom   10 type  3   force =     0.00335091    0.00771268    0.00000000
     atom   11 type  3   force =    -0.00335091    0.00771268    0.00000000
     atom   12 type  3   force =     0.00335091   -0.00771268    0.00000000
     atom   13 type  4   force =     0.00204365    0.01189311    0.00000000
     atom   14 type  4   force =    -0.00204365   -0.01189311    0.00000000
     atom   15 type  4   force =     0.00204365   -0.01189311    0.00000000
     atom   16 type  4   force =    -0.00204365    0.01189311    0.00000000
     atom   17 type  4   force =     0.00473454   -0.00323246    0.00000000
     atom   18 type  4   force =    -0.00473454    0.00323246    0.00000000
     atom   19 type  4   force =     0.00473454    0.00323246    0.00000000
     atom   20 type  4   force =    -0.00473454   -0.00323246    0.00000000
     atom   21 type  4   force =    -0.00181607   -0.00187417    0.00203114
     atom   22 type  4   force =     0.00181607    0.00187417   -0.00203114
     atom   23 type  4   force =    -0.00181607    0.00187417   -0.00203114
     atom   24 type  4   force =     0.00181607   -0.00187417    0.00203114
     atom   25 type  4   force =     0.00181607    0.00187417    0.00203114
     atom   26 type  4   force =    -0.00181607   -0.00187417   -0.00203114
     atom   27 type  4   force =     0.00181607   -0.00187417   -0.00203114
     atom   28 type  4   force =    -0.00181607    0.00187417    0.00203114

     Total force =     0.034143     Total SCF correction =     0.000685


     Computing stress (Cartesian axis) and pressure


     negative rho (up, down):  0.000E+00 1.663E-03
          total   stress  (Ry/bohr**3)                   (kbar)     P=       -2.53
   0.00003353   0.00000000   0.00000000            4.93        0.00        0.00
   0.00000000   0.00000903   0.00000000            0.00        1.33        0.00
   0.00000000   0.00000000  -0.00009409            0.00        0.00      -13.84

     Energy error            =      4.3E-03
     Gradient error          =      1.2E-02
     Cell gradient error     =      9.4E-05


     number of scf cycles    =   6
     number of bfgs steps    =   5

     enthalpy old            =   -2738.4573298860 Ry
     enthalpy new            =   -2738.4616360856 Ry

     CASE: enthalpy_new < enthalpy_old

     new trust radius        =       0.0392066718 bohr
     new conv_thr            =       0.0000001000 Ry

     new unit-cell volume =   2056.91362 a.u.^3 (   304.80315 Ang^3 )
     density =      3.75319 g/cm^3

CELL_PARAMETERS (angstrom)
   4.868863320   0.000000000   0.000000000
   0.000000000  10.400814622   0.000000000
   0.000000000   0.000000000   6.019002373

ATOMIC_POSITIONS (angstrom)
Fe            0.0000000000        0.0000000000       -0.0000000000
Fe            2.4344316598        5.2004073112       -0.0000000000
Fe            0.0000000000        0.0000000000        3.0095011864
Fe            2.4344316598        5.2004073112        3.0095011864
Mg            0.0699599764        2.8763813847        4.5142517796
Mg            4.7989033431        7.5244332376        1.5047505932
Mg            2.5043916362        2.3240259265        1.5047505932
Mg            2.3644716834        8.0767886959        4.5142517796
Si            0.3736506552        4.2363668203        1.5047505932
Si            4.4952126643        6.1644478020        4.5142517796
Si            2.8080823150        0.9640404908        4.5142517796
Si            2.0607810045        9.4367741315        1.5047505932
O             1.1644041763        0.9809414580        4.5142517796
O             3.7044591433        9.4198731644        1.5047505932
O             3.5988358360        4.2194658532        1.5047505932
O             1.2700274835        6.1813487692        4.5142517796
O             1.4316522952        0.5813112534        1.5047505932
O             3.4372110244        9.8195033690        4.5142517796
O             3.8660839549        4.6190960578        4.5142517796
O             1.0027793646        5.7817185646        1.5047505932
O             1.0798024016        3.4942829778        2.8055997971
O             3.7890609180        6.9065316446        3.2134025756
O             3.5142340613        1.7061243334        3.2134025756
O             1.3546292582        8.6946902890        2.8055997971
O             3.7890609180        6.9065316446        5.8151009835
O             1.0798024016        3.4942829778        0.2039013893
O             1.3546292582        8.6946902890        0.2039013893
O             3.5142340613        1.7061243334        5.8151009835



     Writing output data file ./out/oliv.save/
     NEW-OLD atomic charge density approx. for the potential

     Check: negative core charge=   -0.000006

     negative rho (up, down):  0.000E+00 1.663E-03
     extrapolated charge  215.59622, renormalised to  216.00000
     Generating pointlists ...

     total cpu time spent up to now is     7071.1 secs

     Self-consistent Calculation

     iteration #  1     ecut=    60.00 Ry     beta= 0.30
     Davidson diagonalization with overlap
     ethr =  1.00E-06,  avg # of iterations = 10.5

     negative rho (up, down):  0.000E+00 1.637E-03

     total cpu time spent up to now is     7204.6 secs

     total energy              =   -2738.45583787 Ry
     estimated scf accuracy    <       0.00934112 Ry

     total magnetization       =    16.00 Bohr mag/cell
     absolute magnetization    =    16.12 Bohr mag/cell

     iteration #  2     ecut=    60.00 Ry     beta= 0.30
     Davidson diagonalization with overlap
     ethr =  4.32E-06,  avg # of iterations =  5.1

     negative rho (up, down):  0.000E+00 1.650E-03

     total cpu time spent up to now is     7258.1 secs

     total energy              =   -2738.46418476 Ry
     estimated scf accuracy    <       0.01340433 Ry

     total magnetization       =    16.00 Bohr mag/cell
     absolute magnetization    =    16.14 Bohr mag/cell

     iteration #  3     ecut=    60.00 Ry     beta= 0.30
     Davidson diagonalization with overlap
     ethr =  4.32E-06,  avg # of iterations =  2.0

     negative rho (up, down):  0.000E+00 1.655E-03

     total cpu time spent up to now is     7284.2 secs

     total energy              =   -2738.46408264 Ry
     estimated scf accuracy    <       0.00418208 Ry

     total magnetization       =    16.00 Bohr mag/cell
     absolute magnetization    =    16.13 Bohr mag/cell

     iteration #  4     ecut=    60.00 Ry     beta= 0.30
     Davidson diagonalization with overlap
     ethr =  1.94E-06,  avg # of iterations =  2.2

     negative rho (up, down):  0.000E+00 1.661E-03

     total cpu time spent up to now is     7311.7 secs

     total energy              =   -2738.46381640 Ry
     estimated scf accuracy    <       0.00122509 Ry

     total magnetization       =    16.00 Bohr mag/cell
     absolute magnetization    =    16.13 Bohr mag/cell

     iteration #  5     ecut=    60.00 Ry     beta= 0.30
     Davidson diagonalization with overlap
     ethr =  5.67E-07,  avg # of iterations =  5.1

     negative rho (up, down):  0.000E+00 1.661E-03

     total cpu time spent up to now is     7347.1 secs

     total energy              =   -2738.46422163 Ry
     estimated scf accuracy    <       0.00003178 Ry

     total magnetization       =    16.00 Bohr mag/cell
     absolute magnetization    =    16.13 Bohr mag/cell

     iteration #  6     ecut=    60.00 Ry     beta= 0.30
     Davidson diagonalization with overlap
     ethr =  1.47E-08,  avg # of iterations =  9.8

     negative rho (up, down):  0.000E+00 1.660E-03

     total cpu time spent up to now is     7415.0 secs

     total energy              =   -2738.46424246 Ry
     estimated scf accuracy    <       0.00005335 Ry

     total magnetization       =    16.00 Bohr mag/cell
     absolute magnetization    =    16.13 Bohr mag/cell

     iteration #  7     ecut=    60.00 Ry     beta= 0.30
     Davidson diagonalization with overlap
     ethr =  1.47E-08,  avg # of iterations =  3.5

     negative rho (up, down):  0.000E+00 1.659E-03

     total cpu time spent up to now is     7457.7 secs

     total energy              =   -2738.46425590 Ry
     estimated scf accuracy    <       0.00000542 Ry

     total magnetization       =    16.00 Bohr mag/cell
     absolute magnetization    =    16.13 Bohr mag/cell

     iteration #  8     ecut=    60.00 Ry     beta= 0.30
     Davidson diagonalization with overlap
     ethr =  2.51E-09,  avg # of iterations =  5.5

     negative rho (up, down):  0.000E+00 1.660E-03

     total cpu time spent up to now is     7522.2 secs

     total energy              =   -2738.46425464 Ry
     estimated scf accuracy    <       0.00002136 Ry

     total magnetization       =    16.00 Bohr mag/cell
     absolute magnetization    =    16.13 Bohr mag/cell

     iteration #  9     ecut=    60.00 Ry     beta= 0.30
     Davidson diagonalization with overlap
     ethr =  2.51E-09,  avg # of iterations =  3.5

     negative rho (up, down):  0.000E+00 1.660E-03

     total cpu time spent up to now is     7575.8 secs

     total energy              =   -2738.46425824 Ry
     estimated scf accuracy    <       0.00000192 Ry

     total magnetization       =    16.00 Bohr mag/cell
     absolute magnetization    =    16.13 Bohr mag/cell

     iteration # 10     ecut=    60.00 Ry     beta= 0.30
     Davidson diagonalization with overlap
     ethr =  8.87E-10,  avg # of iterations =  5.1

     negative rho (up, down):  0.000E+00 1.660E-03

     total cpu time spent up to now is     7621.2 secs

     total energy              =   -2738.46425949 Ry
     estimated scf accuracy    <       0.00000189 Ry

     total magnetization       =    16.00 Bohr mag/cell
     absolute magnetization    =    16.13 Bohr mag/cell

     iteration # 11     ecut=    60.00 Ry     beta= 0.30
     Davidson diagonalization with overlap
     ethr =  8.75E-10,  avg # of iterations =  3.0

     negative rho (up, down):  0.000E+00 1.660E-03

     total cpu time spent up to now is     7652.3 secs

     total energy              =   -2738.46425998 Ry
     estimated scf accuracy    <       0.00000049 Ry

     total magnetization       =    16.00 Bohr mag/cell
     absolute magnetization    =    16.13 Bohr mag/cell

     iteration # 12     ecut=    60.00 Ry     beta= 0.30
     Davidson diagonalization with overlap
     ethr =  2.28E-10,  avg # of iterations =  6.4

     negative rho (up, down):  0.000E+00 1.660E-03

     Magnetic moment per site:
     atom:    1    charge:   13.3583    magn:    3.3490    constr:    0.0000
     atom:    2    charge:   13.3583    magn:    3.3490    constr:    0.0000
     atom:    3    charge:   13.3583    magn:    3.3490    constr:    0.0000
     atom:    4    charge:   13.3583    magn:    3.3490    constr:    0.0000
     atom:    5    charge:    8.0787    magn:    0.0010    constr:    0.0000
     atom:    6    charge:    8.0787    magn:    0.0010    constr:    0.0000
     atom:    7    charge:    8.0787    magn:    0.0010    constr:    0.0000
     atom:    8    charge:    8.0787    magn:    0.0010    constr:    0.0000
     atom:    9    charge:    0.3879    magn:    0.0014    constr:    0.0000
     atom:   10    charge:    0.3879    magn:    0.0014    constr:    0.0000
     atom:   11    charge:    0.3879    magn:    0.0014    constr:    0.0000
     atom:   12    charge:    0.3879    magn:    0.0014    constr:    0.0000
     atom:   13    charge:    4.0352    magn:    0.0795    constr:    0.0000
     atom:   14    charge:    4.0352    magn:    0.0795    constr:    0.0000
     atom:   15    charge:    4.0352    magn:    0.0795    constr:    0.0000
     atom:   16    charge:    4.0352    magn:    0.0795    constr:    0.0000
     atom:   17    charge:    4.0333    magn:    0.0822    constr:    0.0000
     atom:   18    charge:    4.0333    magn:    0.0822    constr:    0.0000
     atom:   19    charge:    4.0333    magn:    0.0822    constr:    0.0000
     atom:   20    charge:    4.0333    magn:    0.0822    constr:    0.0000
     atom:   21    charge:    4.0329    magn:    0.0458    constr:    0.0000
     atom:   22    charge:    4.0329    magn:    0.0458    constr:    0.0000
     atom:   23    charge:    4.0329    magn:    0.0458    constr:    0.0000
     atom:   24    charge:    4.0329    magn:    0.0458    constr:    0.0000
     atom:   25    charge:    4.0329    magn:    0.0458    constr:    0.0000
     atom:   26    charge:    4.0329    magn:    0.0458    constr:    0.0000
     atom:   27    charge:    4.0329    magn:    0.0458    constr:    0.0000
     atom:   28    charge:    4.0329    magn:    0.0458    constr:    0.0000

     total cpu time spent up to now is     7691.4 secs

     End of self-consistent calculation

 ------ SPIN UP ------------


          k = 0.0000 0.0000 0.0000 ( 15339 PWs)   bands (ev):

   -80.1976 -80.1976 -80.1955 -80.1955 -65.9260 -65.9260 -65.9259 -65.9259
   -46.7766 -46.7766 -46.7711 -46.7711 -46.1213 -46.1213 -46.1187 -46.1187
   -45.8787 -45.8787 -45.8475 -45.8475 -32.6963 -32.6962 -32.6942 -32.6942
   -32.6710 -32.6709 -32.6706 -32.6706 -32.6515 -32.6515 -32.6483 -32.6482
   -12.1720 -11.9658 -11.6483 -11.5225 -10.6142 -10.6014 -10.5304 -10.4891
   -10.4073 -10.2691 -10.2039 -10.1895 -10.1844 -10.1052 -10.0006  -9.9185
     0.2021   0.2352   0.8273   0.9065   0.9380   0.9527   1.6314   1.8434
     1.8875   1.9581   2.1770   2.2994   2.3345   3.0711   3.1215   3.2500
     3.3429   3.4187   3.4593   3.4992   3.5992   3.6811   3.7547   3.7682
     3.7761   3.7952   3.9430   4.0169   4.1704   4.1920   4.2607   4.2813
     4.4819   4.5044   4.5406   4.7579   4.8121   5.0412   5.1038   5.1401
     5.1670   5.2018   5.4299   5.6062   5.6646   5.7227   5.7520   5.7622
     5.9638   5.9876   6.2010   6.2704   6.2856   6.3983   6.8592   6.8650
     6.9952   7.0751   7.2359   7.2790   7.8156   7.9319   7.9693   8.0138
     8.0428   8.2244   8.2569   8.3119  10.7704  12.6106  13.3667  14.6323
    14.8562  15.2671  15.4180  15.5099  15.5681  15.6836  15.7697  15.8990
    15.9922  16.2861

          k = 0.0000 0.0000-0.3949 ( 15392 PWs)   bands (ev):

   -80.1966 -80.1966 -80.1966 -80.1966 -65.9259 -65.9259 -65.9259 -65.9259
   -46.7739 -46.7739 -46.7738 -46.7738 -46.1200 -46.1200 -46.1200 -46.1200
   -45.8632 -45.8632 -45.8632 -45.8632 -32.6952 -32.6952 -32.6952 -32.6952
   -32.6708 -32.6708 -32.6707 -32.6707 -32.6499 -32.6499 -32.6499 -32.6499
   -11.8753 -11.8753 -11.7840 -11.7840 -10.5794 -10.5794 -10.5507 -10.5507
   -10.3792 -10.3792 -10.2178 -10.2178 -10.0582 -10.0582  -9.9960  -9.9960
     0.5489   0.5489   0.6027   0.6027   1.4599   1.4599   1.5679   1.5679
     2.1775   2.1775   2.5008   2.5008   2.7324   2.7324   3.0427   3.0427
     3.1248   3.1248   3.2396   3.2396   3.5421   3.5421   3.8354   3.8354
     3.8851   3.8851   3.9029   3.9029   4.0956   4.0956   4.1972   4.1972
     4.4352   4.4352   4.6932   4.6932   4.7559   4.7559   4.9203   4.9203
     5.0394   5.0394   5.1940   5.1940   5.5736   5.5736   5.6400   5.6400
     6.2106   6.2106   6.3053   6.3053   6.6963   6.6963   6.7598   6.7598
     7.0917   7.0917   7.1626   7.1626   7.8823   7.8823   7.8956   7.8956
     8.0975   8.0975   8.1007   8.1007  12.6450  12.6450  13.7086  13.7086
    14.5216  14.5216  15.7465  15.7465  15.7618  15.7618  16.7014  16.7015
    16.8266  16.8270

          k =-0.4882 0.0000 0.0000 ( 15374 PWs)   bands (ev):

   -80.1976 -80.1976 -80.1955 -80.1955 -65.9259 -65.9259 -65.9259 -65.9259
   -46.7766 -46.7766 -46.7712 -46.7712 -46.1213 -46.1213 -46.1187 -46.1187
   -45.8787 -45.8787 -45.8475 -45.8475 -32.6953 -32.6953 -32.6952 -32.6952
   -32.6708 -32.6708 -32.6707 -32.6707 -32.6499 -32.6499 -32.6499 -32.6499
   -11.7715 -11.7715 -11.4662 -11.4662 -10.9461 -10.9461 -10.6719 -10.6719
   -10.4089 -10.4089 -10.1694 -10.1694 -10.0612 -10.0612 -10.0368 -10.0368
     0.4059   0.4059   0.5409   0.5409   1.9561   1.9561   1.9601   1.9601
     2.2586   2.2586   2.3789   2.3789   2.5014   2.5014   2.6742   2.6742
     2.9192   2.9192   2.9812   2.9812   2.9815   2.9815   3.5885   3.5885
     4.0140   4.0140   4.1369   4.1369   4.2119   4.2119   4.4963   4.4963
     4.5792   4.5792   4.6780   4.6780   4.8180   4.8180   5.0735   5.0735
     5.1660   5.1660   5.6405   5.6405   5.7719   5.7719   6.0533   6.0533
     6.0960   6.0960   6.3292   6.3292   6.4210   6.4210   6.8975   6.8975
     6.9357   6.9357   7.2380   7.2380   7.5895   7.5895   8.0153   8.0153
     8.1537   8.1537   8.2888   8.2888  13.3154  13.3154  14.0551  14.0551
    14.2965  14.2965  14.6680  14.6680  14.9393  14.9393  15.2900  15.2900
    15.8973  15.8974

          k =-0.4882 0.0000-0.3949 ( 15436 PWs)   bands (ev):

   -80.1966 -80.1966 -80.1966 -80.1966 -65.9260 -65.9260 -65.9259 -65.9259
   -46.7739 -46.7739 -46.7739 -46.7739 -46.1200 -46.1200 -46.1200 -46.1200
   -45.8632 -45.8632 -45.8632 -45.8632 -32.6953 -32.6953 -32.6953 -32.6953
   -32.6708 -32.6708 -32.6708 -32.6708 -32.6499 -32.6499 -32.6499 -32.6499
   -11.6299 -11.6299 -11.5834 -11.5834 -10.8187 -10.8187 -10.8024 -10.8024
   -10.3728 -10.3728 -10.2632 -10.2632 -10.0586 -10.0586 -10.0378 -10.0378
     0.5701   0.5701   0.6504   0.6504   1.9265   1.9265   2.2317   2.2317
     2.3426   2.3426   2.4674   2.4674   2.5273   2.5273   2.6793   2.6793
     2.9929   2.9929   3.0111   3.0111   3.3729   3.3729   3.4580   3.4580
     3.5329   3.5329   3.8592   3.8592   4.3066   4.3066   4.4761   4.4761
     4.5829   4.5829   4.6148   4.6148   4.6978   4.6978   4.9003   4.9003
     5.1777   5.1777   5.2934   5.2934   5.4937   5.4937   5.6874   5.6874
     6.2821   6.2821   6.3266   6.3266   6.7439   6.7439   6.7583   6.7583
     7.0741   7.0741   7.1070   7.1070   7.7956   7.7956   7.8297   7.8297
     8.1258   8.1258   8.1352   8.1352  14.2494  14.2494  14.2853  14.2853
    14.8335  14.8335  14.8389  14.8389  15.2038  15.2038  15.4212  15.4212
    16.2939  16.2939

 ------ SPIN DOWN ----------


          k = 0.0000 0.0000 0.0000 ( 15339 PWs)   bands (ev):

   -76.0691 -76.0690 -76.0668 -76.0667 -65.9252 -65.9252 -65.9251 -65.9251
   -42.3651 -42.3651 -42.3577 -42.3577 -42.1768 -42.1767 -42.1733 -42.1733
   -42.1484 -42.1484 -42.1105 -42.1104 -32.6957 -32.6957 -32.6936 -32.6936
   -32.6699 -32.6698 -32.6695 -32.6695 -32.6504 -32.6504 -32.6472 -32.6471
   -12.0463 -11.8329 -11.5328 -11.3985 -10.4545 -10.4351 -10.3645 -10.3196
   -10.2802 -10.1428 -10.0891 -10.0657 -10.0499 -10.0105  -9.8988  -9.8226
     0.4023   0.4173   0.9326   0.9967   1.0712   1.1713   1.9172   1.9295
     1.9875   2.2957   2.4160   2.4695   2.5893   3.2018   3.2152   3.4457
     3.6370   3.7911   3.9288   3.9594   4.0175   4.0888   4.0914   4.1183
     4.1389   4.2600   4.3531   4.3570   4.5382   4.6566   4.6714   4.7078
     4.8501   4.9502   4.9932   5.1698   5.1828   5.2238   5.2288   5.3474
     5.5479   5.7186   5.8213   5.8262   5.8424   5.8725   5.9189   6.0186
     8.9783   9.0196   9.1997   9.3002   9.5822   9.6332   9.8582   9.9626
    10.0432  10.1113  10.3775  10.3796  11.1025  11.1504  11.2390  11.2841
    11.3492  11.4006  11.4241  11.4435  11.5031  13.1011  13.4947  14.7599
    15.0301  15.5422  15.6495  15.7212  15.7861  15.8664  15.8812  16.1678
    16.1930  16.9160

          k = 0.0000 0.0000-0.3949 ( 15392 PWs)   bands (ev):

   -76.0680 -76.0680 -76.0680 -76.0680 -65.9252 -65.9252 -65.9252 -65.9252
   -42.3613 -42.3613 -42.3613 -42.3613 -42.1750 -42.1750 -42.1750 -42.1750
   -42.1296 -42.1296 -42.1296 -42.1296 -32.6947 -32.6947 -32.6947 -32.6947
   -32.6697 -32.6697 -32.6697 -32.6697 -32.6488 -32.6488 -32.6488 -32.6488
   -11.7499 -11.7499 -11.6574 -11.6574 -10.4151 -10.4151 -10.3853 -10.3853
   -10.2623 -10.2623 -10.0923 -10.0923  -9.9548  -9.9548  -9.8845  -9.8845
     0.7066   0.7066   0.7768   0.7768   1.6275   1.6275   1.6868   1.6868
     2.3568   2.3568   2.7171   2.7171   2.9722   2.9722   3.2730   3.2730
     3.4688   3.4688   3.6782   3.6782   3.9443   3.9443   4.0731   4.0731
     4.2457   4.2457   4.2805   4.2805   4.5457   4.5457   4.5850   4.5850
     4.9619   4.9619   4.9651   4.9651   5.2084   5.2084   5.2504   5.2504
     5.2616   5.2616   5.5327   5.5327   5.8975   5.8975   5.8999   5.8999
     9.3886   9.3886   9.4407   9.4407   9.7144   9.7144   9.7183   9.7183
    10.0081  10.0081  10.0826  10.0826  11.1536  11.1536  11.1802  11.1802
    11.4190  11.4190  11.4518  11.4518  12.9611  12.9611  14.0738  14.0738
    14.7118  14.7118  15.9778  15.9779  16.1033  16.1033  16.8959  16.8959
    17.1031  17.1180

          k =-0.4882 0.0000 0.0000 ( 15374 PWs)   bands (ev):

   -76.0692 -76.0692 -76.0667 -76.0667 -65.9252 -65.9252 -65.9252 -65.9252
   -42.3651 -42.3651 -42.3577 -42.3577 -42.1767 -42.1767 -42.1733 -42.1733
   -42.1485 -42.1485 -42.1105 -42.1105 -32.6947 -32.6947 -32.6947 -32.6947
   -32.6697 -32.6697 -32.6697 -32.6697 -32.6488 -32.6488 -32.6488 -32.6488
   -11.6506 -11.6506 -11.3444 -11.3444 -10.7771 -10.7771 -10.5226 -10.5226
   -10.2660 -10.2660 -10.0325 -10.0325  -9.9602  -9.9602  -9.9416  -9.9416
     0.5562   0.5562   0.6271   0.6271   2.1334   2.1334   2.1800   2.1800
     2.5144   2.5144   2.5877   2.5877   2.8196   2.8196   2.9435   2.9435
     3.1871   3.1871   3.2173   3.2173   3.3374   3.3374   3.8197   3.8197
     4.3365   4.3365   4.5477   4.5477   4.8124   4.8124   4.8317   4.8317
     5.0370   5.0370   5.0948   5.0948   5.3344   5.3344   5.3440   5.3440
     5.6077   5.6077   5.8197   5.8197   5.9472   5.9472   6.2759   6.2759
     9.0466   9.0466   9.2051   9.2051   9.6084   9.6084   9.9351   9.9351
    10.1484  10.1484  10.4105  10.4105  10.9480  10.9480  11.1802  11.1802
    11.4680  11.4680  11.5205  11.5205  13.5294  13.5294  14.2369  14.2369
    14.6834  14.6834  14.8336  14.8336  15.0672  15.0672  15.6338  15.6338
    16.3799  16.3799

          k =-0.4882 0.0000-0.3949 ( 15436 PWs)   bands (ev):

   -76.0680 -76.0680 -76.0680 -76.0680 -65.9252 -65.9252 -65.9252 -65.9252
   -42.3613 -42.3613 -42.3613 -42.3613 -42.1750 -42.1750 -42.1750 -42.1750
   -42.1296 -42.1296 -42.1296 -42.1296 -32.6948 -32.6948 -32.6948 -32.6948
   -32.6697 -32.6697 -32.6697 -32.6697 -32.6488 -32.6488 -32.6488 -32.6488
   -11.5077 -11.5077 -11.4592 -11.4592 -10.6572 -10.6572 -10.6467 -10.6467
   -10.2378 -10.2378 -10.1356 -10.1356  -9.9512  -9.9512  -9.9346  -9.9346
     0.6904   0.6904   0.7846   0.7846   2.2436   2.2436   2.4995   2.4995
     2.5952   2.5952   2.6912   2.6912   2.7377   2.7377   2.9011   2.9011
     3.2082   3.2082   3.2148   3.2148   3.6165   3.6165   3.6724   3.6724
     3.8007   3.8007   4.2415   4.2415   4.7404   4.7404   4.7705   4.7705
     4.9056   4.9056   5.3034   5.3034   5.3168   5.3168   5.3925   5.3925
     5.5293   5.5293   5.6441   5.6441   5.8339   5.8339   5.9195   5.9195
     9.3581   9.3581   9.3825   9.3825   9.7877   9.7877   9.7941   9.7941
    10.0490  10.0490  10.0629  10.0629  11.0198  11.0198  11.0320  11.0320
    11.3449  11.3449  11.3457  11.3457  14.5653  14.5653  14.6439  14.6439
    15.1512  15.1512  15.1849  15.1849  15.4421  15.4421  15.7742  15.7742
    16.4810  16.4812

     the Fermi energy is     9.5204 ev

!    total energy              =   -2738.46426118 Ry

     total all-electron energy =    -16515.665171 Ry
     estimated scf accuracy    <       0.00000010 Ry
     smearing contrib. (-TS)   =      -0.00472580 Ry
     internal energy E=F+TS    =   -2738.45953539 Ry

     The total energy is F=E-TS. E is the sum of the following terms:
     one-electron contribution =   -1249.18006284 Ry
     hartree contribution      =     724.85106680 Ry
     xc contribution           =    -328.19068663 Ry
     ewald contribution        =   -1199.45986715 Ry
     one-center paw contrib.   =    -686.47998557 Ry

     total magnetization       =    16.00 Bohr mag/cell
     absolute magnetization    =    16.13 Bohr mag/cell

     convergence has been achieved in  12 iterations

     negative rho (up, down):  0.000E+00 1.660E-03

     Forces acting on atoms (cartesian axes, Ry/au):

     atom    1 type  1   force =     0.00000000    0.00000000    0.00000000
     atom    2 type  1   force =    -0.00000000    0.00000000   -0.00000000
     atom    3 type  1   force =     0.00000000   -0.00000000    0.00000000
     atom    4 type  1   force =     0.00000000    0.00000000   -0.00000000
     atom    5 type  2   force =    -0.00036537   -0.00396636    0.00000000
     atom    6 type  2   force =     0.00036537    0.00396636    0.00000000
     atom    7 type  2   force =    -0.00036537    0.00396636   -0.00000000
     atom    8 type  2   force =     0.00036537   -0.00396636    0.00000000
     atom    9 type  3   force =    -0.00348292   -0.00911268    0.00000000
     atom   10 type  3   force =     0.00348292    0.00911268    0.00000000
     atom   11 type  3   force =    -0.00348292    0.00911268   -0.00000000
     atom   12 type  3   force =     0.00348292   -0.00911268   -0.00000000
     atom   13 type  4   force =    -0.00002723    0.00772032    0.00000000
     atom   14 type  4   force =     0.00002723   -0.00772032    0.00000000
     atom   15 type  4   force =    -0.00002723   -0.00772032    0.00000000
     atom   16 type  4   force =     0.00002723    0.00772032    0.00000000
     atom   17 type  4   force =     0.00302289   -0.00597722   -0.00000000
     atom   18 type  4   force =    -0.00302289    0.00597722   -0.00000000
     atom   19 type  4   force =     0.00302289    0.00597722    0.00000000
     atom   20 type  4   force =    -0.00302289   -0.00597722    0.00000000
     atom   21 type  4   force =     0.00024456    0.00127211   -0.00014743
     atom   22 type  4   force =    -0.00024456   -0.00127211    0.00014743
     atom   23 type  4   force =     0.00024456   -0.00127211    0.00014743
     atom   24 type  4   force =    -0.00024456    0.00127211   -0.00014743
     atom   25 type  4   force =    -0.00024456   -0.00127211   -0.00014743
     atom   26 type  4   force =     0.00024456    0.00127211    0.00014743
     atom   27 type  4   force =    -0.00024456    0.00127211    0.00014743
     atom   28 type  4   force =     0.00024456   -0.00127211   -0.00014743

     Total force =     0.029591     Total SCF correction =     0.000677


     Computing stress (Cartesian axis) and pressure


     negative rho (up, down):  0.000E+00 1.660E-03
          total   stress  (Ry/bohr**3)                   (kbar)     P=       -3.90
   0.00001177   0.00000000   0.00000000            1.73        0.00        0.00
   0.00000000  -0.00001348   0.00000000            0.00       -1.98        0.00
   0.00000000   0.00000000  -0.00007772            0.00        0.00      -11.43

     Energy error            =      2.6E-03
     Gradient error          =      9.1E-03
     Cell gradient error     =      7.8E-05


     number of scf cycles    =   7
     number of bfgs steps    =   6

     enthalpy old            =   -2738.4616360856 Ry
     enthalpy new            =   -2738.4642611850 Ry

     CASE: enthalpy_new < enthalpy_old

     new trust radius        =       0.0590099395 bohr
     new conv_thr            =       0.0000000911 Ry

     new unit-cell volume =   2049.01135 a.u.^3 (   303.63216 Ang^3 )
     density =      3.76767 g/cm^3

CELL_PARAMETERS (angstrom)
   4.879603960   0.000000000   0.000000000
   0.000000000  10.405746659   0.000000000
   0.000000000   0.000000000   5.979845169

ATOMIC_POSITIONS (angstrom)
Fe            0.0000000000        0.0000000000       -0.0000000000
Fe            2.4398019799        5.2028733296       -0.0000000000
Fe            0.0000000000       -0.0000000000        2.9899225847
Fe            2.4398019799        5.2028733296        2.9899225847
Mg            0.0706171069        2.8710916916        4.4848838771
Mg            4.8089868530        7.5346549677        1.4949612924
Mg            2.5104190868        2.3317816380        1.4949612924
Mg            2.3691848731        8.0739650212        4.4848838771
Si            0.3712327047        4.2307488991        1.4949612924
Si            4.5083712552        6.1749977602        4.4848838771
Si            2.8110346846        0.9721244306        4.4848838771
Si            2.0685692753        9.4336222287        1.4949612924
O             1.1687700265        1.0019805660        4.4848838771
O             3.7108339334        9.4037660933        1.4949612924
O             3.6085720064        4.2008927637        1.4949612924
O             1.2710319535        6.2048538956        4.4848838771
O             1.4443951195        0.5760061169        1.4949612924
O             3.4352088404        9.8297405424        4.4848838771
O             3.8841970994        4.6268672127        4.4848838771
O             0.9954068605        5.7788794466        1.4949612924
O             1.0797117912        3.4903390072        2.7937810595
O             3.7998921687        6.9154076521        3.1860641100
O             3.5195137712        1.7125343225        3.1860641100
O             1.3600901887        8.6932123368        2.7937810595
O             3.7998921687        6.9154076521        5.7837036442
O             1.0797117912        3.4903390072        0.1961415253
O             1.3600901887        8.6932123368        0.1961415253
O             3.5195137712        1.7125343225        5.7837036442



     Writing output data file ./out/oliv.save/
     NEW-OLD atomic charge density approx. for the potential

     Check: negative core charge=   -0.000006

     negative rho (up, down):  0.000E+00 1.659E-03
     extrapolated charge  215.16700, renormalised to  216.00000
     Generating pointlists ...

     total cpu time spent up to now is     7728.8 secs

     Self-consistent Calculation

     iteration #  1     ecut=    60.00 Ry     beta= 0.30
     Davidson diagonalization with overlap
     ethr =  1.00E-06,  avg # of iterations = 11.6

     negative rho (up, down):  0.000E+00 1.603E-03

     total cpu time spent up to now is     7880.7 secs

     total energy              =   -2738.42785128 Ry
     estimated scf accuracy    <       0.04368025 Ry

     total magnetization       =    16.00 Bohr mag/cell
     absolute magnetization    =    16.12 Bohr mag/cell

     iteration #  2     ecut=    60.00 Ry     beta= 0.30
     Davidson diagonalization with overlap
     ethr =  2.02E-05,  avg # of iterations =  5.1

     negative rho (up, down):  0.000E+00 1.632E-03

     total cpu time spent up to now is     7936.2 secs

     total energy              =   -2738.46582540 Ry
     estimated scf accuracy    <       0.05904682 Ry

     total magnetization       =    16.00 Bohr mag/cell
     absolute magnetization    =    16.15 Bohr mag/cell

     iteration #  3     ecut=    60.00 Ry     beta= 0.30
     Davidson diagonalization with overlap
     ethr =  2.02E-05,  avg # of iterations =  2.0

     negative rho (up, down):  0.000E+00 1.642E-03

     total cpu time spent up to now is     7968.7 secs

     total energy              =   -2738.46597751 Ry
     estimated scf accuracy    <       0.01747662 Ry

     total magnetization       =    16.00 Bohr mag/cell
     absolute magnetization    =    16.14 Bohr mag/cell

     iteration #  4     ecut=    60.00 Ry     beta= 0.30
     Davidson diagonalization with overlap
     ethr =  8.09E-06,  avg # of iterations =  2.2

     negative rho (up, down):  0.000E+00 1.654E-03

     total cpu time spent up to now is     7996.4 secs

     total energy              =   -2738.46524312 Ry
     estimated scf accuracy    <       0.00566730 Ry

     total magnetization       =    16.00 Bohr mag/cell
     absolute magnetization    =    16.14 Bohr mag/cell

     iteration #  5     ecut=    60.00 Ry     beta= 0.30
     Davidson diagonalization with overlap
     ethr =  2.62E-06,  avg # of iterations =  4.8

     negative rho (up, down):  0.000E+00 1.657E-03

     total cpu time spent up to now is     8027.5 secs

     total energy              =   -2738.46623218 Ry
     estimated scf accuracy    <       0.00031120 Ry

     total magnetization       =    16.00 Bohr mag/cell
     absolute magnetization    =    16.13 Bohr mag/cell

     iteration #  6     ecut=    60.00 Ry     beta= 0.30
     Davidson diagonalization with overlap
     ethr =  1.44E-07,  avg # of iterations =  9.8

     negative rho (up, down):  0.000E+00 1.655E-03

     total cpu time spent up to now is     8084.8 secs

     total energy              =   -2738.46654976 Ry
     estimated scf accuracy    <       0.00017620 Ry

     total magnetization       =    16.00 Bohr mag/cell
     absolute magnetization    =    16.13 Bohr mag/cell

     iteration #  7     ecut=    60.00 Ry     beta= 0.30
     Davidson diagonalization with overlap
     ethr =  8.16E-08,  avg # of iterations =  2.0

     negative rho (up, down):  0.000E+00 1.653E-03

     total cpu time spent up to now is     8116.2 secs

     total energy              =   -2738.46654569 Ry
     estimated scf accuracy    <       0.00005085 Ry

     total magnetization       =    16.00 Bohr mag/cell
     absolute magnetization    =    16.13 Bohr mag/cell

     iteration #  8     ecut=    60.00 Ry     beta= 0.30
     Davidson diagonalization with overlap
     ethr =  2.35E-08,  avg # of iterations =  7.0

     negative rho (up, down):  0.000E+00 1.654E-03

     total cpu time spent up to now is     8178.7 secs

     total energy              =   -2738.46657448 Ry
     estimated scf accuracy    <       0.00007727 Ry

     total magnetization       =    16.00 Bohr mag/cell
     absolute magnetization    =    16.14 Bohr mag/cell

     iteration #  9     ecut=    60.00 Ry     beta= 0.30
     Davidson diagonalization with overlap
     ethr =  2.35E-08,  avg # of iterations =  2.0

     negative rho (up, down):  0.000E+00 1.656E-03

     total cpu time spent up to now is     8213.1 secs

     total energy              =   -2738.46656825 Ry
     estimated scf accuracy    <       0.00002187 Ry

     total magnetization       =    16.00 Bohr mag/cell
     absolute magnetization    =    16.13 Bohr mag/cell

     iteration # 10     ecut=    60.00 Ry     beta= 0.30
     Davidson diagonalization with overlap
     ethr =  1.01E-08,  avg # of iterations =  5.9

     negative rho (up, down):  0.000E+00 1.655E-03

     total cpu time spent up to now is     8275.3 secs

     total energy              =   -2738.46657769 Ry
     estimated scf accuracy    <       0.00003222 Ry

     total magnetization       =    16.00 Bohr mag/cell
     absolute magnetization    =    16.13 Bohr mag/cell

     iteration # 11     ecut=    60.00 Ry     beta= 0.30
     Davidson diagonalization with overlap
     ethr =  1.01E-08,  avg # of iterations =  2.4

     negative rho (up, down):  0.000E+00 1.655E-03

     total cpu time spent up to now is     8311.0 secs

     total energy              =   -2738.46658200 Ry
     estimated scf accuracy    <       0.00000308 Ry

     total magnetization       =    16.00 Bohr mag/cell
     absolute magnetization    =    16.13 Bohr mag/cell

     iteration # 12     ecut=    60.00 Ry     beta= 0.30
     Davidson diagonalization with overlap
     ethr =  1.42E-09,  avg # of iterations =  7.4

     negative rho (up, down):  0.000E+00 1.655E-03

     total cpu time spent up to now is     8393.2 secs

     total energy              =   -2738.46658291 Ry
     estimated scf accuracy    <       0.00001703 Ry

     total magnetization       =    16.00 Bohr mag/cell
     absolute magnetization    =    16.13 Bohr mag/cell

     iteration # 13     ecut=    60.00 Ry     beta= 0.30
     Davidson diagonalization with overlap
     ethr =  1.42E-09,  avg # of iterations =  5.1

     negative rho (up, down):  0.000E+00 1.655E-03

     total cpu time spent up to now is     8455.5 secs

     total energy              =   -2738.46658712 Ry
     estimated scf accuracy    <       0.00000054 Ry

     total magnetization       =    16.00 Bohr mag/cell
     absolute magnetization    =    16.13 Bohr mag/cell

     iteration # 14     ecut=    60.00 Ry     beta= 0.30
     Davidson diagonalization with overlap
     ethr =  2.50E-10,  avg # of iterations =  4.6

     negative rho (up, down):  0.000E+00 1.655E-03

     total cpu time spent up to now is     8493.2 secs

     total energy              =   -2738.46658750 Ry
     estimated scf accuracy    <       0.00000014 Ry

     total magnetization       =    16.00 Bohr mag/cell
     absolute magnetization    =    16.13 Bohr mag/cell

     iteration # 15     ecut=    60.00 Ry     beta= 0.30
     Davidson diagonalization with overlap
     ethr =  6.38E-11,  avg # of iterations =  5.6

     negative rho (up, down):  0.000E+00 1.655E-03

     Magnetic moment per site:
     atom:    1    charge:   13.3567    magn:    3.3493    constr:    0.0000
     atom:    2    charge:   13.3567    magn:    3.3493    constr:    0.0000
     atom:    3    charge:   13.3567    magn:    3.3493    constr:    0.0000
     atom:    4    charge:   13.3567    magn:    3.3493    constr:    0.0000
     atom:    5    charge:    8.0820    magn:    0.0009    constr:    0.0000
     atom:    6    charge:    8.0820    magn:    0.0009    constr:    0.0000
     atom:    7    charge:    8.0820    magn:    0.0009    constr:    0.0000
     atom:    8    charge:    8.0820    magn:    0.0009    constr:    0.0000
     atom:    9    charge:    0.3883    magn:    0.0013    constr:    0.0000
     atom:   10    charge:    0.3883    magn:    0.0013    constr:    0.0000
     atom:   11    charge:    0.3883    magn:    0.0013    constr:    0.0000
     atom:   12    charge:    0.3883    magn:    0.0013    constr:    0.0000
     atom:   13    charge:    4.0358    magn:    0.0797    constr:    0.0000
     atom:   14    charge:    4.0358    magn:    0.0797    constr:    0.0000
     atom:   15    charge:    4.0358    magn:    0.0797    constr:    0.0000
     atom:   16    charge:    4.0358    magn:    0.0797    constr:    0.0000
     atom:   17    charge:    4.0324    magn:    0.0830    constr:    0.0000
     atom:   18    charge:    4.0324    magn:    0.0830    constr:    0.0000
     atom:   19    charge:    4.0324    magn:    0.0830    constr:    0.0000
     atom:   20    charge:    4.0324    magn:    0.0830    constr:    0.0000
     atom:   21    charge:    4.0342    magn:    0.0456    constr:    0.0000
     atom:   22    charge:    4.0342    magn:    0.0456    constr:    0.0000
     atom:   23    charge:    4.0342    magn:    0.0456    constr:    0.0000
     atom:   24    charge:    4.0342    magn:    0.0456    constr:    0.0000
     atom:   25    charge:    4.0342    magn:    0.0456    constr:    0.0000
     atom:   26    charge:    4.0342    magn:    0.0456    constr:    0.0000
     atom:   27    charge:    4.0342    magn:    0.0456    constr:    0.0000
     atom:   28    charge:    4.0342    magn:    0.0456    constr:    0.0000

     total cpu time spent up to now is     8554.3 secs

     End of self-consistent calculation

 ------ SPIN UP ------------


          k = 0.0000 0.0000 0.0000 ( 15339 PWs)   bands (ev):

   -80.1943 -80.1942 -80.1920 -80.1919 -65.8188 -65.8188 -65.8187 -65.8187
   -46.7688 -46.7688 -46.7634 -46.7634 -46.1224 -46.1224 -46.1196 -46.1196
   -45.8742 -45.8741 -45.8403 -45.8403 -32.5886 -32.5886 -32.5864 -32.5864
   -32.5649 -32.5648 -32.5644 -32.5644 -32.5456 -32.5456 -32.5422 -32.5421
   -12.1376 -11.9243 -11.6129 -11.4748 -10.5836 -10.5681 -10.4957 -10.4488
   -10.3612 -10.2299 -10.1638 -10.1453 -10.1429 -10.0634  -9.9551  -9.8754
     0.2396   0.2717   0.8578   0.9383   0.9718   0.9916   1.6634   1.8744
     1.9299   2.0005   2.2158   2.3263   2.3694   3.1155   3.1583   3.2937
     3.3706   3.4479   3.4810   3.5256   3.6479   3.7077   3.8062   3.8185
     3.8194   3.8240   3.9990   4.0491   4.2188   4.2502   4.2983   4.3496
     4.5280   4.5410   4.5772   4.7842   4.8709   5.0588   5.1418   5.2001
     5.2255   5.2595   5.4620   5.6707   5.7128   5.7738   5.8175   5.8215
     5.9567   5.9799   6.2035   6.2668   6.2796   6.4019   6.8938   6.9025
     6.9825   7.0637   7.2601   7.3047   7.7976   7.9502   7.9891   8.0043
     8.0336   8.2200   8.2575   8.3071  10.8235  12.6350  13.4461  14.7036
    14.8613  15.3197  15.4780  15.5837  15.6415  15.7297  15.9118  15.9339
    16.0963  16.3257

          k = 0.0000 0.0000-0.3975 ( 15392 PWs)   bands (ev):

   -80.1931 -80.1931 -80.1931 -80.1931 -65.8187 -65.8187 -65.8187 -65.8187
   -46.7661 -46.7661 -46.7661 -46.7661 -46.1210 -46.1210 -46.1210 -46.1210
   -45.8574 -45.8574 -45.8573 -45.8573 -32.5875 -32.5875 -32.5875 -32.5875
   -32.5646 -32.5646 -32.5646 -32.5646 -32.5439 -32.5439 -32.5439 -32.5439
   -11.8345 -11.8345 -11.7423 -11.7423 -10.5476 -10.5476 -10.5153 -10.5153
   -10.3374 -10.3374 -10.1775 -10.1775 -10.0162 -10.0162  -9.9528  -9.9528
     0.5850   0.5850   0.6430   0.6430   1.5022   1.5022   1.6128   1.6128
     2.2162   2.2162   2.5517   2.5517   2.7655   2.7655   3.0885   3.0885
     3.1629   3.1629   3.2753   3.2753   3.5685   3.5685   3.8797   3.8797
     3.9369   3.9369   3.9453   3.9453   4.1342   4.1342   4.2331   4.2331
     4.4782   4.4782   4.7368   4.7368   4.7856   4.7856   4.9630   4.9630
     5.0808   5.0808   5.2311   5.2311   5.6130   5.6130   5.6707   5.6707
     6.2139   6.2139   6.3070   6.3070   6.7145   6.7145   6.7802   6.7802
     7.0970   7.0970   7.1673   7.1673   7.8887   7.8887   7.9040   7.9040
     8.0939   8.0939   8.0949   8.0949  12.7039  12.7039  13.7421  13.7421
    14.6066  14.6066  15.7798  15.7798  15.7909  15.7909  16.7485  16.7485
    16.8927  16.8928

          k =-0.4872 0.0000 0.0000 ( 15374 PWs)   bands (ev):

   -80.1943 -80.1943 -80.1919 -80.1919 -65.8187 -65.8187 -65.8187 -65.8187
   -46.7688 -46.7688 -46.7634 -46.7634 -46.1224 -46.1224 -46.1196 -46.1196
   -45.8742 -45.8742 -45.8403 -45.8403 -32.5875 -32.5875 -32.5875 -32.5875
   -32.5646 -32.5646 -32.5646 -32.5646 -32.5439 -32.5439 -32.5439 -32.5439
   -11.7402 -11.7402 -11.4258 -11.4258 -10.9066 -10.9066 -10.6322 -10.6322
   -10.3678 -10.3678 -10.1277 -10.1277 -10.0169 -10.0169  -9.9941  -9.9941
     0.4480   0.4480   0.5787   0.5787   1.9904   1.9904   1.9939   1.9939
     2.2950   2.2950   2.4076   2.4076   2.5411   2.5411   2.7078   2.7078
     2.9492   2.9492   3.0068   3.0068   3.0383   3.0383   3.6281   3.6281
     4.0470   4.0470   4.1992   4.1992   4.2547   4.2547   4.5229   4.5229
     4.6367   4.6367   4.7122   4.7122   4.8672   4.8672   5.1093   5.1093
     5.2249   5.2249   5.6633   5.6633   5.8246   5.8246   6.0476   6.0476
     6.1552   6.1552   6.3361   6.3361   6.4188   6.4188   6.9278   6.9278
     6.9382   6.9382   7.2604   7.2604   7.5857   7.5857   8.0165   8.0165
     8.1768   8.1768   8.2760   8.2760  13.3732  13.3732  14.1005  14.1005
    14.3109  14.3109  14.7282  14.7282  15.0311  15.0311  15.3451  15.3451
    15.9162  15.9163

          k =-0.4872 0.0000-0.3975 ( 15436 PWs)   bands (ev):

   -80.1931 -80.1931 -80.1931 -80.1931 -65.8187 -65.8187 -65.8187 -65.8187
   -46.7661 -46.7661 -46.7661 -46.7661 -46.1210 -46.1210 -46.1210 -46.1210
   -45.8574 -45.8574 -45.8574 -45.8574 -32.5876 -32.5876 -32.5876 -32.5876
   -32.5646 -32.5646 -32.5646 -32.5646 -32.5439 -32.5439 -32.5439 -32.5439
   -11.5920 -11.5920 -11.5470 -11.5470 -10.7787 -10.7787 -10.7611 -10.7611
   -10.3338 -10.3338 -10.2240 -10.2240 -10.0168 -10.0168  -9.9950  -9.9950
     0.6154   0.6154   0.6967   0.6967   1.9623   1.9623   2.2613   2.2613
     2.3768   2.3768   2.5035   2.5035   2.5617   2.5617   2.7069   2.7069
     3.0497   3.0497   3.0521   3.0521   3.4277   3.4277   3.5025   3.5025
     3.5859   3.5859   3.9052   3.9052   4.3602   4.3602   4.5182   4.5182
     4.6127   4.6127   4.6562   4.6562   4.7256   4.7256   4.9204   4.9204
     5.2202   5.2202   5.3352   5.3352   5.5345   5.5345   5.7137   5.7137
     6.2821   6.2821   6.3241   6.3241   6.7675   6.7675   6.7787   6.7787
     7.0786   7.0786   7.1111   7.1111   7.8027   7.8027   7.8347   7.8347
     8.1257   8.1257   8.1339   8.1339  14.2958  14.2958  14.3011  14.3011
    14.8501  14.8501  14.8703  14.8703  15.2938  15.2938  15.4752  15.4752
    16.3600  16.3601

 ------ SPIN DOWN ----------


          k = 0.0000 0.0000 0.0000 ( 15339 PWs)   bands (ev):

   -76.0654 -76.0652 -76.0628 -76.0627 -65.8180 -65.8180 -65.8179 -65.8179
   -42.3574 -42.3574 -42.3500 -42.3500 -42.1744 -42.1743 -42.1707 -42.1707
   -42.1459 -42.1459 -42.1050 -42.1049 -32.5881 -32.5881 -32.5859 -32.5859
   -32.5638 -32.5637 -32.5634 -32.5634 -32.5445 -32.5445 -32.5411 -32.5411
   -12.0120 -11.7913 -11.4980 -11.3510 -10.4235 -10.4005 -10.3302 -10.2789
   -10.2336 -10.1027 -10.0457 -10.0251 -10.0073  -9.9692  -9.8540  -9.7801
     0.4369   0.4542   0.9627   1.0271   1.1042   1.2129   1.9467   1.9612
     2.0305   2.3404   2.4519   2.5123   2.6198   3.2390   3.2624   3.4752
     3.6641   3.8333   3.9600   4.0076   4.0627   4.1161   4.1400   4.1461
     4.1724   4.2806   4.4022   4.4028   4.5651   4.7164   4.7434   4.7440
     4.9044   4.9814   5.0524   5.2008   5.2389   5.2639   5.2810   5.4063
     5.5794   5.7798   5.8766   5.8885   5.8938   5.9258   5.9918   6.0795
     8.9542   8.9942   9.1949   9.2948   9.6101   9.6555   9.8701   9.9770
    10.0447  10.1113  10.4003  10.4074  11.1538  11.1654  11.2371  11.2769
    11.3541  11.4041  11.4109  11.4304  11.4900  13.1319  13.5778  14.8419
    15.0394  15.5947  15.7126  15.7925  15.8315  15.9454  16.0446  16.2187
    16.2751  16.9889

          k = 0.0000 0.0000-0.3975 ( 15392 PWs)   bands (ev):

   -76.0641 -76.0641 -76.0641 -76.0641 -65.8180 -65.8180 -65.8180 -65.8180
   -42.3537 -42.3537 -42.3536 -42.3536 -42.1725 -42.1725 -42.1725 -42.1725
   -42.1257 -42.1257 -42.1257 -42.1257 -32.5870 -32.5870 -32.5870 -32.5870
   -32.5636 -32.5636 -32.5636 -32.5636 -32.5429 -32.5429 -32.5429 -32.5429
   -11.7092 -11.7092 -11.6159 -11.6159 -10.3830 -10.3830 -10.3495 -10.3495
   -10.2205 -10.2205 -10.0522 -10.0522  -9.9127  -9.9127  -9.8412  -9.8412
     0.7418   0.7418   0.8161   0.8161   1.6713   1.6713   1.7321   1.7321
     2.3960   2.3960   2.7663   2.7663   3.0070   3.0070   3.3177   3.3177
     3.5011   3.5011   3.7101   3.7101   3.9755   3.9755   4.1162   4.1162
     4.2888   4.2888   4.3348   4.3348   4.5856   4.5856   4.6310   4.6310
     4.9976   4.9976   5.0013   5.0013   5.2540   5.2540   5.3024   5.3024
     5.3085   5.3085   5.5765   5.5765   5.9414   5.9414   5.9435   5.9435
     9.3927   9.3927   9.4426   9.4426   9.7193   9.7193   9.7252   9.7252
    10.0132  10.0132  10.0880  10.0880  11.1595  11.1595  11.1857  11.1857
    11.4058  11.4058  11.4374  11.4374  13.0320  13.0320  14.1227  14.1227
    14.8006  14.8006  16.0356  16.0356  16.1212  16.1212  16.9488  16.9489
    17.1681  17.1953

          k =-0.4872 0.0000 0.0000 ( 15374 PWs)   bands (ev):

   -76.0654 -76.0654 -76.0628 -76.0628 -65.8180 -65.8180 -65.8180 -65.8180
   -42.3575 -42.3575 -42.3500 -42.3500 -42.1744 -42.1744 -42.1707 -42.1707
   -42.1459 -42.1459 -42.1050 -42.1050 -32.5870 -32.5870 -32.5870 -32.5870
   -32.5636 -32.5636 -32.5636 -32.5636 -32.5428 -32.5428 -32.5428 -32.5428
   -11.6190 -11.6190 -11.3042 -11.3042 -10.7376 -10.7376 -10.4832 -10.4832
   -10.2239 -10.2239  -9.9895  -9.9895  -9.9166  -9.9166  -9.8994  -9.8994
     0.5971   0.5971   0.6654   0.6654   2.1677   2.1677   2.2153   2.2153
     2.5424   2.5424   2.6218   2.6218   2.8586   2.8586   2.9797   2.9797
     3.2054   3.2054   3.2534   3.2534   3.3927   3.3927   3.8586   3.8586
     4.3842   4.3842   4.6078   4.6078   4.8624   4.8624   4.8755   4.8755
     5.0523   5.0523   5.1600   5.1600   5.3841   5.3841   5.3893   5.3893
     5.6759   5.6759   5.8456   5.8456   5.9941   5.9941   6.3388   6.3388
     9.0205   9.0205   9.2039   9.2039   9.6323   9.6323   9.9465   9.9465
    10.1487  10.1487  10.4423  10.4423  10.9435  10.9435  11.1777  11.1777
    11.4742  11.4742  11.5080  11.5080  13.6012  13.6012  14.2848  14.2848
    14.7146  14.7146  14.8974  14.8974  15.1557  15.1557  15.6776  15.6776
    16.4777  16.4777

          k =-0.4872 0.0000-0.3975 ( 15436 PWs)   bands (ev):

   -76.0642 -76.0642 -76.0642 -76.0642 -65.8180 -65.8180 -65.8180 -65.8180
   -42.3537 -42.3537 -42.3537 -42.3537 -42.1725 -42.1725 -42.1725 -42.1725
   -42.1257 -42.1257 -42.1257 -42.1257 -32.5871 -32.5871 -32.5871 -32.5871
   -32.5636 -32.5636 -32.5636 -32.5636 -32.5428 -32.5428 -32.5428 -32.5428
   -11.4696 -11.4696 -11.4226 -11.4226 -10.6174 -10.6174 -10.6058 -10.6058
   -10.1982 -10.1982 -10.0964 -10.0964  -9.9091  -9.9091  -9.8919  -9.8919
     0.7355   0.7355   0.8306   0.8306   2.2816   2.2816   2.5256   2.5256
     2.6309   2.6309   2.7212   2.7212   2.7754   2.7754   2.9283   2.9283
     3.2546   3.2546   3.2653   3.2653   3.6700   3.6700   3.7178   3.7178
     3.8570   3.8570   4.2912   4.2912   4.7833   4.7833   4.8154   4.8154
     4.9528   4.9528   5.3398   5.3398   5.3482   5.3482   5.4241   5.4241
     5.5754   5.5754   5.6877   5.6877   5.8814   5.8814   5.9576   5.9576
     9.3642   9.3642   9.3867   9.3867   9.7923   9.7923   9.7993   9.7993
    10.0531  10.0531  10.0670  10.0670  11.0283  11.0283  11.0408  11.0408
    11.3314  11.3314  11.3324  11.3324  14.6394  14.6394  14.6830  14.6830
    15.1946  15.1946  15.1971  15.1971  15.5219  15.5219  15.8205  15.8205
    16.5611  16.5612

     the Fermi energy is     9.5322 ev

!    total energy              =   -2738.46658776 Ry

     total all-electron energy =    -16515.667498 Ry
     estimated scf accuracy    <       0.00000006 Ry
     smearing contrib. (-TS)   =      -0.00431059 Ry
     internal energy E=F+TS    =   -2738.46227716 Ry

     The total energy is F=E-TS. E is the sum of the following terms:
     one-electron contribution =   -1244.29137555 Ry
     hartree contribution      =     722.75461038 Ry
     xc contribution           =    -328.22090535 Ry
     ewald contribution        =   -1202.22343478 Ry
     one-center paw contrib.   =    -686.48117186 Ry

     total magnetization       =    16.00 Bohr mag/cell
     absolute magnetization    =    16.13 Bohr mag/cell

     convergence has been achieved in  15 iterations

     negative rho (up, down):  0.000E+00 1.655E-03

     Forces acting on atoms (cartesian axes, Ry/au):

     atom    1 type  1   force =     0.00000000    0.00000000    0.00000000
     atom    2 type  1   force =     0.00000000    0.00000000   -0.00000000
     atom    3 type  1   force =     0.00000000   -0.00000000    0.00000000
     atom    4 type  1   force =    -0.00000000    0.00000000    0.00000000
     atom    5 type  2   force =    -0.00204149   -0.00223027    0.00000000
     atom    6 type  2   force =     0.00204149    0.00223027    0.00000000
     atom    7 type  2   force =    -0.00204149    0.00223027   -0.00000000
     atom    8 type  2   force =     0.00204149   -0.00223027    0.00000000
     atom    9 type  3   force =    -0.00297787   -0.00826904    0.00000000
     atom   10 type  3   force =     0.00297787    0.00826904    0.00000000
     atom   11 type  3   force =    -0.00297787    0.00826904    0.00000000
     atom   12 type  3   force =     0.00297787   -0.00826904    0.00000000
     atom   13 type  4   force =    -0.00255560    0.00282528   -0.00000000
     atom   14 type  4   force =     0.00255560   -0.00282528    0.00000000
     atom   15 type  4   force =    -0.00255560   -0.00282528    0.00000000
     atom   16 type  4   force =     0.00255560    0.00282528   -0.00000000
     atom   17 type  4   force =     0.00132835   -0.00702186    0.00000000
     atom   18 type  4   force =    -0.00132835    0.00702186   -0.00000000
     atom   19 type  4   force =     0.00132835    0.00702186    0.00000000
     atom   20 type  4   force =    -0.00132835   -0.00702186    0.00000000
     atom   21 type  4   force =     0.00267734    0.00305188   -0.00126030
     atom   22 type  4   force =    -0.00267734   -0.00305188    0.00126030
     atom   23 type  4   force =     0.00267734   -0.00305188    0.00126030
     atom   24 type  4   force =    -0.00267734    0.00305188   -0.00126030
     atom   25 type  4   force =    -0.00267734   -0.00305188   -0.00126030
     atom   26 type  4   force =     0.00267734    0.00305188    0.00126030
     atom   27 type  4   force =    -0.00267734    0.00305188    0.00126030
     atom   28 type  4   force =     0.00267734   -0.00305188   -0.00126030

     Total force =     0.027431     Total SCF correction =     0.000338


     Computing stress (Cartesian axis) and pressure


     negative rho (up, down):  0.000E+00 1.655E-03
          total   stress  (Ry/bohr**3)                   (kbar)     P=       -1.13
   0.00000322   0.00000000   0.00000000            0.47        0.00        0.00
   0.00000000  -0.00000592   0.00000000            0.00       -0.87        0.00
   0.00000000   0.00000000  -0.00002036            0.00        0.00       -2.99

     Energy error            =      2.3E-03
     Gradient error          =      8.3E-03
     Cell gradient error     =      2.0E-05


     number of scf cycles    =   8
     number of bfgs steps    =   7

     enthalpy old            =   -2738.4642611850 Ry
     enthalpy new            =   -2738.4665877553 Ry

     CASE: enthalpy_new < enthalpy_old

     new trust radius        =       0.0354820967 bohr
     new conv_thr            =       0.0000000827 Ry

     new unit-cell volume =   2045.92113 a.u.^3 (   303.17423 Ang^3 )
     density =      3.77336 g/cm^3

CELL_PARAMETERS (angstrom)
   4.888704890   0.000000000   0.000000000
   0.000000000  10.411516552   0.000000000
   0.000000000   0.000000000   5.956408438

ATOMIC_POSITIONS (angstrom)
Fe            0.0000000000        0.0000000000       -0.0000000000
Fe            2.4443524451        5.2057582762       -0.0000000000
Fe            0.0000000000       -0.0000000000        2.9782042191
Fe            2.4443524451        5.2057582762        2.9782042191
Mg            0.0695942892        2.8673516369        4.4673063286
Mg            4.8191106009        7.5441649154        1.4891021095
Mg            2.5139467343        2.3384066392        1.4891021095
Mg            2.3747581558        8.0731099131        4.4673063286
Si            0.3674528288        4.2240624326        1.4891021095
Si            4.5212520613        6.1874541198        4.4673063286
Si            2.8118052739        0.9816958436        4.4673063286
Si            2.0768996162        9.4298207087        1.4891021095
O             1.1699813787        1.0170622019        4.4673063286
O             3.7187235115        9.3944543504        1.4891021095
O             3.6143338238        4.1886960742        1.4891021095
O             1.2743710664        6.2228204781        4.4673063286
O             1.4538417954        0.5684567386        1.4891021095
O             3.4348630947        9.8430598138        4.4673063286
O             3.8981942405        4.6373015376        4.4673063286
O             0.9905106496        5.7742150148        1.4891021095
O             1.0824143234        3.4901735219        2.7867599169
O             3.8062905667        6.9213430304        3.1696485212
O             3.5267667685        1.7155847543        3.1696485212
O             1.3619381216        8.6959317981        2.7867599169
O             3.8062905667        6.9213430304        5.7649641360
O             1.0824143234        3.4901735219        0.1914443021
O             1.3619381216        8.6959317981        0.1914443021
O             3.5267667685        1.7155847543        5.7649641360



     Writing output data file ./out/oliv.save/
     NEW-OLD atomic charge density approx. for the potential

     Check: negative core charge=   -0.000006

     negative rho (up, down):  0.000E+00 1.655E-03
     extrapolated charge  215.67376, renormalised to  216.00000
     Generating pointlists ...

     total cpu time spent up to now is     8588.8 secs

     Self-consistent Calculation

     iteration #  1     ecut=    60.00 Ry     beta= 0.30
     Davidson diagonalization with overlap
     ethr =  1.00E-06,  avg # of iterations = 10.5

     negative rho (up, down):  0.000E+00 1.634E-03

     total cpu time spent up to now is     8705.2 secs

     total energy              =   -2738.46184527 Ry
     estimated scf accuracy    <       0.00676002 Ry

     total magnetization       =    16.00 Bohr mag/cell
     absolute magnetization    =    16.13 Bohr mag/cell

     iteration #  2     ecut=    60.00 Ry     beta= 0.30
     Davidson diagonalization with overlap
     ethr =  3.13E-06,  avg # of iterations =  4.5

     negative rho (up, down):  0.000E+00 1.645E-03

     total cpu time spent up to now is     8756.6 secs

     total energy              =   -2738.46752054 Ry
     estimated scf accuracy    <       0.00898548 Ry

     total magnetization       =    16.00 Bohr mag/cell
     absolute magnetization    =    16.14 Bohr mag/cell

     iteration #  3     ecut=    60.00 Ry     beta= 0.30
     Davidson diagonalization with overlap
     ethr =  3.13E-06,  avg # of iterations =  2.0

     negative rho (up, down):  0.000E+00 1.650E-03

     total cpu time spent up to now is     8790.1 secs

     total energy              =   -2738.46743815 Ry
     estimated scf accuracy    <       0.00271129 Ry

     total magnetization       =    16.00 Bohr mag/cell
     absolute magnetization    =    16.14 Bohr mag/cell

     iteration #  4     ecut=    60.00 Ry     beta= 0.30
     Davidson diagonalization with overlap
     c_bands:  1 eigenvalues not converged
     ethr =  1.26E-06,  avg # of iterations =  4.6

     negative rho (up, down):  0.000E+00 1.654E-03

     total cpu time spent up to now is     8824.7 secs

     total energy              =   -2738.46739569 Ry
     estimated scf accuracy    <       0.00064229 Ry

     total magnetization       =    16.00 Bohr mag/cell
     absolute magnetization    =    16.14 Bohr mag/cell

     iteration #  5     ecut=    60.00 Ry     beta= 0.30
     Davidson diagonalization with overlap
     ethr =  2.97E-07,  avg # of iterations =  5.5

     negative rho (up, down):  0.000E+00 1.654E-03

     total cpu time spent up to now is     8871.2 secs

     total energy              =   -2738.46763877 Ry
     estimated scf accuracy    <       0.00003361 Ry

     total magnetization       =    16.00 Bohr mag/cell
     absolute magnetization    =    16.14 Bohr mag/cell

     iteration #  6     ecut=    60.00 Ry     beta= 0.30
     Davidson diagonalization with overlap
     ethr =  1.56E-08,  avg # of iterations =  9.5

     negative rho (up, down):  0.000E+00 1.653E-03

     total cpu time spent up to now is     8944.3 secs

     total energy              =   -2738.46764955 Ry
     estimated scf accuracy    <       0.00004767 Ry

     total magnetization       =    16.00 Bohr mag/cell
     absolute magnetization    =    16.14 Bohr mag/cell

     iteration #  7     ecut=    60.00 Ry     beta= 0.30
     Davidson diagonalization with overlap
     ethr =  1.56E-08,  avg # of iterations =  3.2

     negative rho (up, down):  0.000E+00 1.652E-03

     total cpu time spent up to now is     8989.6 secs

     total energy              =   -2738.46766594 Ry
     estimated scf accuracy    <       0.00000772 Ry

     total magnetization       =    16.00 Bohr mag/cell
     absolute magnetization    =    16.14 Bohr mag/cell

     iteration #  8     ecut=    60.00 Ry     beta= 0.30
     Davidson diagonalization with overlap
     ethr =  3.57E-09,  avg # of iterations =  4.9

     negative rho (up, down):  0.000E+00 1.653E-03

     total cpu time spent up to now is     9037.3 secs

     total energy              =   -2738.46766402 Ry
     estimated scf accuracy    <       0.00001935 Ry

     total magnetization       =    16.00 Bohr mag/cell
     absolute magnetization    =    16.14 Bohr mag/cell

     iteration #  9     ecut=    60.00 Ry     beta= 0.30
     Davidson diagonalization with overlap
     ethr =  3.57E-09,  avg # of iterations =  4.4

     negative rho (up, down):  0.000E+00 1.654E-03

     total cpu time spent up to now is     9074.8 secs

     total energy              =   -2738.46766790 Ry
     estimated scf accuracy    <       0.00000343 Ry

     total magnetization       =    16.00 Bohr mag/cell
     absolute magnetization    =    16.14 Bohr mag/cell

     iteration # 10     ecut=    60.00 Ry     beta= 0.30
     Davidson diagonalization with overlap
     ethr =  1.59E-09,  avg # of iterations =  4.8

     negative rho (up, down):  0.000E+00 1.654E-03

     total cpu time spent up to now is     9110.9 secs

     total energy              =   -2738.46766812 Ry
     estimated scf accuracy    <       0.00000405 Ry

     total magnetization       =    16.00 Bohr mag/cell
     absolute magnetization    =    16.14 Bohr mag/cell

     iteration # 11     ecut=    60.00 Ry     beta= 0.30
     Davidson diagonalization with overlap
     ethr =  1.59E-09,  avg # of iterations =  3.8

     negative rho (up, down):  0.000E+00 1.654E-03

     total cpu time spent up to now is     9154.8 secs

     total energy              =   -2738.46767103 Ry
     estimated scf accuracy    <       0.00000211 Ry

     total magnetization       =    16.00 Bohr mag/cell
     absolute magnetization    =    16.14 Bohr mag/cell

     iteration # 12     ecut=    60.00 Ry     beta= 0.30
     Davidson diagonalization with overlap
     ethr =  9.78E-10,  avg # of iterations =  2.6

     negative rho (up, down):  0.000E+00 1.654E-03

     total cpu time spent up to now is     9190.8 secs

     total energy              =   -2738.46767155 Ry
     estimated scf accuracy    <       0.00000021 Ry

     total magnetization       =    16.00 Bohr mag/cell
     absolute magnetization    =    16.14 Bohr mag/cell

     iteration # 13     ecut=    60.00 Ry     beta= 0.30
     Davidson diagonalization with overlap
     ethr =  9.63E-11,  avg # of iterations =  7.5

     negative rho (up, down):  0.000E+00 1.654E-03

     Magnetic moment per site:
     atom:    1    charge:   13.3555    magn:    3.3499    constr:    0.0000
     atom:    2    charge:   13.3555    magn:    3.3499    constr:    0.0000
     atom:    3    charge:   13.3555    magn:    3.3499    constr:    0.0000
     atom:    4    charge:   13.3555    magn:    3.3499    constr:    0.0000
     atom:    5    charge:    8.0836    magn:    0.0009    constr:    0.0000
     atom:    6    charge:    8.0836    magn:    0.0009    constr:    0.0000
     atom:    7    charge:    8.0836    magn:    0.0009    constr:    0.0000
     atom:    8    charge:    8.0836    magn:    0.0009    constr:    0.0000
     atom:    9    charge:    0.3883    magn:    0.0014    constr:    0.0000
     atom:   10    charge:    0.3883    magn:    0.0014    constr:    0.0000
     atom:   11    charge:    0.3883    magn:    0.0014    constr:    0.0000
     atom:   12    charge:    0.3883    magn:    0.0014    constr:    0.0000
     atom:   13    charge:    4.0362    magn:    0.0795    constr:    0.0000
     atom:   14    charge:    4.0362    magn:    0.0795    constr:    0.0000
     atom:   15    charge:    4.0362    magn:    0.0795    constr:    0.0000
     atom:   16    charge:    4.0362    magn:    0.0795    constr:    0.0000
     atom:   17    charge:    4.0314    magn:    0.0835    constr:    0.0000
     atom:   18    charge:    4.0314    magn:    0.0835    constr:    0.0000
     atom:   19    charge:    4.0314    magn:    0.0835    constr:    0.0000
     atom:   20    charge:    4.0314    magn:    0.0835    constr:    0.0000
     atom:   21    charge:    4.0353    magn:    0.0453    constr:    0.0000
     atom:   22    charge:    4.0353    magn:    0.0453    constr:    0.0000
     atom:   23    charge:    4.0353    magn:    0.0453    constr:    0.0000
     atom:   24    charge:    4.0353    magn:    0.0453    constr:    0.0000
     atom:   25    charge:    4.0353    magn:    0.0453    constr:    0.0000
     atom:   26    charge:    4.0353    magn:    0.0453    constr:    0.0000
     atom:   27    charge:    4.0353    magn:    0.0453    constr:    0.0000
     atom:   28    charge:    4.0353    magn:    0.0453    constr:    0.0000

     total cpu time spent up to now is     9252.5 secs

     End of self-consistent calculation

 ------ SPIN UP ------------


          k = 0.0000 0.0000 0.0000 ( 15339 PWs)   bands (ev):

   -80.1981 -80.1981 -80.1957 -80.1957 -65.7703 -65.7703 -65.7702 -65.7702
   -46.7691 -46.7691 -46.7636 -46.7636 -46.1298 -46.1297 -46.1268 -46.1268
   -45.8772 -45.8772 -45.8417 -45.8417 -32.5396 -32.5395 -32.5372 -32.5372
   -32.5166 -32.5165 -32.5162 -32.5161 -32.4982 -32.4982 -32.4947 -32.4947
   -12.1223 -11.9037 -11.6026 -11.4539 -10.5720 -10.5443 -10.4847 -10.4324
   -10.3397 -10.2061 -10.1402 -10.1311 -10.1180 -10.0507  -9.9410  -9.8629
     0.2486   0.2885   0.8602   0.9466   0.9913   1.0124   1.6839   1.8887
     1.9471   2.0283   2.2315   2.3407   2.3889   3.1389   3.1816   3.3098
     3.3766   3.4547   3.4879   3.5402   3.6604   3.7182   3.8256   3.8315
     3.8441   3.8511   4.0245   4.0556   4.2352   4.2627   4.3173   4.3929
     4.5558   4.5648   4.5804   4.7982   4.9043   5.0624   5.1529   5.2287
     5.2440   5.2863   5.4658   5.6967   5.7409   5.8041   5.8379   5.8665
     5.9498   5.9725   6.1996   6.2574   6.2694   6.3968   6.9049   6.9159
     6.9677   7.0489   7.2749   7.3207   7.7788   7.9544   7.9910   7.9950
     8.0197   8.2103   8.2537   8.3002  10.8392  12.6365  13.4590  14.7262
    14.8573  15.3618  15.5119  15.6069  15.6603  15.7556  15.9025  16.0061
    16.1392  16.3464

          k = 0.0000 0.0000-0.3991 ( 15392 PWs)   bands (ev):

   -80.1969 -80.1969 -80.1969 -80.1969 -65.7702 -65.7702 -65.7702 -65.7702
   -46.7663 -46.7663 -46.7663 -46.7663 -46.1283 -46.1283 -46.1283 -46.1283
   -45.8596 -45.8596 -45.8596 -45.8596 -32.5384 -32.5384 -32.5384 -32.5384
   -32.5164 -32.5164 -32.5164 -32.5164 -32.4966 -32.4966 -32.4966 -32.4966
   -11.8161 -11.8161 -11.7244 -11.7244 -10.5300 -10.5300 -10.5009 -10.5009
   -10.3210 -10.3210 -10.1552 -10.1552 -10.0028 -10.0028  -9.9362  -9.9362
     0.5969   0.5969   0.6539   0.6539   1.5267   1.5267   1.6406   1.6406
     2.2326   2.2326   2.5823   2.5823   2.7765   2.7765   3.1107   3.1107
     3.1788   3.1788   3.2951   3.2951   3.5818   3.5818   3.8909   3.8909
     3.9589   3.9589   3.9607   3.9607   4.1520   4.1520   4.2504   4.2504
     4.4958   4.4958   4.7543   4.7543   4.7967   4.7967   4.9864   4.9864
     5.0983   5.0983   5.2389   5.2389   5.6289   5.6289   5.6830   5.6830
     6.2109   6.2109   6.3028   6.3028   6.7193   6.7193   6.7850   6.7850
     7.0966   7.0966   7.1659   7.1659   7.8835   7.8835   7.8996   7.8996
     8.0880   8.0880   8.0892   8.0892  12.7222  12.7222  13.7461  13.7461
    14.6257  14.6257  15.7894  15.7894  15.8040  15.8040  16.7803  16.7803
    16.8933  16.8937

          k =-0.4862 0.0000 0.0000 ( 15374 PWs)   bands (ev):

   -80.1981 -80.1981 -80.1957 -80.1957 -65.7702 -65.7702 -65.7702 -65.7702
   -46.7691 -46.7691 -46.7636 -46.7636 -46.1297 -46.1297 -46.1268 -46.1268
   -45.8772 -45.8772 -45.8417 -45.8417 -32.5385 -32.5385 -32.5384 -32.5384
   -32.5164 -32.5164 -32.5164 -32.5164 -32.4965 -32.4965 -32.4965 -32.4965
   -11.7254 -11.7254 -11.4088 -11.4088 -10.8925 -10.8925 -10.6214 -10.6214
   -10.3401 -10.3401 -10.0995 -10.0995 -10.0034 -10.0034  -9.9811  -9.9811
     0.4692   0.4692   0.5991   0.5991   2.0070   2.0070   2.0078   2.0078
     2.3128   2.3128   2.4176   2.4176   2.5587   2.5587   2.7225   2.7225
     2.9587   2.9587   3.0168   3.0168   3.0686   3.0686   3.6354   3.6354
     4.0593   4.0593   4.2207   4.2207   4.2774   4.2774   4.5298   4.5298
     4.6655   4.6655   4.7303   4.7303   4.8848   4.8848   5.1252   5.1252
     5.2514   5.2514   5.6727   5.6727   5.8463   5.8463   6.0414   6.0414
     6.1843   6.1843   6.3332   6.3332   6.4091   6.4091   6.9162   6.9162
     6.9540   6.9540   7.2745   7.2745   7.5743   7.5743   8.0107   8.0107
     8.1862   8.1862   8.2640   8.2640  13.3903  13.3903  14.1038  14.1038
    14.3143  14.3143  14.7682  14.7682  15.0790  15.0790  15.3566  15.3566
    15.9217  15.9218

          k =-0.4862 0.0000-0.3991 ( 15436 PWs)   bands (ev):

   -80.1969 -80.1969 -80.1969 -80.1969 -65.7702 -65.7702 -65.7702 -65.7702
   -46.7663 -46.7663 -46.7663 -46.7663 -46.1283 -46.1283 -46.1283 -46.1283
   -45.8596 -45.8596 -45.8596 -45.8596 -32.5385 -32.5385 -32.5385 -32.5385
   -32.5164 -32.5164 -32.5164 -32.5164 -32.4965 -32.4965 -32.4965 -32.4965
   -11.5739 -11.5739 -11.5305 -11.5305 -10.7661 -10.7661 -10.7488 -10.7488
   -10.3077 -10.3077 -10.2016 -10.2016 -10.0013 -10.0013  -9.9809  -9.9809
     0.6410   0.6410   0.7207   0.7207   1.9746   1.9746   2.2732   2.2732
     2.3957   2.3957   2.5198   2.5198   2.5773   2.5773   2.7152   2.7152
     3.0611   3.0611   3.0777   3.0777   3.4492   3.4492   3.5177   3.5177
     3.6204   3.6204   3.9245   3.9245   4.3937   4.3937   4.5315   4.5315
     4.6184   4.6184   4.6824   4.6824   4.7324   4.7324   4.9216   4.9216
     5.2450   5.2450   5.3555   5.3555   5.5483   5.5483   5.7179   5.7179
     6.2745   6.2745   6.3142   6.3142   6.7787   6.7787   6.7863   6.7863
     7.0760   7.0760   7.1088   7.1088   7.7980   7.7980   7.8266   7.8266
     8.1221   8.1221   8.1302   8.1302  14.2973  14.2973  14.2986  14.2986
    14.8580  14.8580  14.8929  14.8929  15.3136  15.3136  15.4936  15.4936
    16.3716  16.3716

 ------ SPIN DOWN ----------


          k = 0.0000 0.0000 0.0000 ( 15339 PWs)   bands (ev):

   -76.0685 -76.0683 -76.0657 -76.0657 -65.7696 -65.7695 -65.7695 -65.7694
   -42.3583 -42.3583 -42.3508 -42.3508 -42.1784 -42.1783 -42.1743 -42.1742
   -42.1492 -42.1492 -42.1066 -42.1066 -32.5391 -32.5391 -32.5368 -32.5367
   -32.5157 -32.5156 -32.5152 -32.5152 -32.4972 -32.4971 -32.4937 -32.4936
   -11.9971 -11.7710 -11.4885 -11.3306 -10.4133 -10.3761 -10.3211 -10.2639
   -10.2118 -10.0768 -10.0321  -9.9997  -9.9803  -9.9571  -9.8407  -9.7682
     0.4530   0.4620   0.9650   1.0348   1.1233   1.2343   1.9592   1.9809
     2.0475   2.3691   2.4726   2.5304   2.6375   3.2631   3.2871   3.4811
     3.6787   3.8494   3.9800   4.0386   4.0678   4.1272   4.1560   4.1621
     4.1790   4.2871   4.4191   4.4194   4.5718   4.7315   4.7469   4.7787
     4.9348   5.0021   5.0852   5.2051   5.2721   5.2745   5.3097   5.4247
     5.5832   5.8024   5.9018   5.9222   5.9244   5.9495   6.0397   6.1080
     8.9296   8.9693   9.1935   9.2920   9.6266   9.6679   9.8758   9.9833
    10.0394  10.1055  10.4069  10.4173  11.1507  11.1879  11.2298  11.2654
    11.3487  11.3996  11.4000  11.4175  11.4780  13.1393  13.5928  14.8700
    15.0378  15.6365  15.7484  15.8144  15.8627  15.9592  16.1140  16.2161
    16.3180  16.9916

          k = 0.0000 0.0000-0.3991 ( 15392 PWs)   bands (ev):

   -76.0672 -76.0672 -76.0671 -76.0671 -65.7695 -65.7695 -65.7695 -65.7695
   -42.3545 -42.3545 -42.3545 -42.3545 -42.1763 -42.1763 -42.1763 -42.1763
   -42.1282 -42.1282 -42.1282 -42.1282 -32.5379 -32.5379 -32.5379 -32.5379
   -32.5154 -32.5154 -32.5154 -32.5154 -32.4955 -32.4955 -32.4955 -32.4955
   -11.6912 -11.6912 -11.5985 -11.5985 -10.3654 -10.3654 -10.3363 -10.3363
   -10.2049 -10.2049 -10.0297 -10.0297  -9.8984  -9.8984  -9.8238  -9.8238
     0.7532   0.7532   0.8261   0.8261   1.6961   1.6961   1.7599   1.7599
     2.4125   2.4125   2.7938   2.7938   3.0202   3.0202   3.3380   3.3380
     3.5164   3.5164   3.7304   3.7304   3.9904   3.9904   4.1269   4.1269
     4.3042   4.3042   4.3585   4.3585   4.6078   4.6078   4.6465   4.6465
     5.0032   5.0032   5.0186   5.0186   5.2673   5.2673   5.3238   5.3238
     5.3357   5.3357   5.5937   5.5937   5.9626   5.9626   5.9643   5.9643
     9.3921   9.3921   9.4400   9.4400   9.7175   9.7175   9.7242   9.7242
    10.0120  10.0120  10.0871  10.0871  11.1556  11.1556  11.1820  11.1820
    11.3932  11.3932  11.4244  11.4244  13.0582  13.0582  14.1378  14.1378
    14.8219  14.8219  16.0523  16.0523  16.1286  16.1286  16.9950  16.9952
    17.1626  17.1631

          k =-0.4862 0.0000 0.0000 ( 15374 PWs)   bands (ev):

   -76.0685 -76.0685 -76.0657 -76.0657 -65.7695 -65.7695 -65.7695 -65.7695
   -42.3584 -42.3584 -42.3508 -42.3508 -42.1784 -42.1784 -42.1742 -42.1742
   -42.1493 -42.1493 -42.1066 -42.1066 -32.5380 -32.5380 -32.5380 -32.5380
   -32.5154 -32.5154 -32.5154 -32.5154 -32.4954 -32.4954 -32.4954 -32.4954
   -11.6046 -11.6046 -11.2880 -11.2880 -10.7244 -10.7244 -10.4732 -10.4732
   -10.1948 -10.1948  -9.9598  -9.9598  -9.9037  -9.9037  -9.8870  -9.8870
     0.6193   0.6193   0.6849   0.6849   2.1849   2.1849   2.2304   2.2304
     2.5513   2.5513   2.6331   2.6331   2.8741   2.8741   3.0001   3.0001
     3.2116   3.2116   3.2635   3.2635   3.4220   3.4220   3.8646   3.8646
     4.4061   4.4061   4.6364   4.6364   4.8811   4.8811   4.8930   4.8930
     5.0573   5.0573   5.1805   5.1805   5.4119   5.4119   5.4141   5.4141
     5.7072   5.7072   5.8575   5.8575   6.0101   6.0101   6.3715   6.3715
     8.9949   8.9949   9.2040   9.2040   9.6458   9.6458   9.9505   9.9505
    10.1428  10.1428  10.4545  10.4545  10.9312  10.9312  11.1700  11.1700
    11.4717  11.4717  11.4976  11.4976  13.6258  13.6258  14.2930  14.2930
    14.7241  14.7241  14.9401  14.9401  15.2071  15.2071  15.6828  15.6828
    16.5171  16.5171

          k =-0.4862 0.0000-0.3991 ( 15436 PWs)   bands (ev):

   -76.0672 -76.0672 -76.0672 -76.0672 -65.7695 -65.7695 -65.7695 -65.7695
   -42.3545 -42.3545 -42.3545 -42.3545 -42.1763 -42.1763 -42.1763 -42.1763
   -42.1282 -42.1282 -42.1282 -42.1282 -32.5380 -32.5380 -32.5380 -32.5380
   -32.5154 -32.5154 -32.5154 -32.5154 -32.4955 -32.4955 -32.4954 -32.4954
   -11.4519 -11.4519 -11.4065 -11.4065 -10.6058 -10.6058 -10.5949 -10.5949
   -10.1709 -10.1709 -10.0748 -10.0748  -9.8920  -9.8920  -9.8777  -9.8777
     0.7613   0.7613   0.8550   0.8550   2.2933   2.2933   2.5336   2.5336
     2.6512   2.6512   2.7335   2.7335   2.7915   2.7915   2.9380   2.9380
     3.2658   3.2658   3.2903   3.2903   3.6923   3.6923   3.7330   3.7330
     3.8920   3.8920   4.3102   4.3102   4.8029   4.8029   4.8395   4.8395
     4.9703   4.9703   5.3468   5.3468   5.3563   5.3563   5.4421   5.4421
     5.6011   5.6011   5.7087   5.7087   5.9003   5.9003   5.9711   5.9711
     9.3654   9.3654   9.3866   9.3866   9.7888   9.7888   9.7964   9.7964
    10.0508  10.0508  10.0648  10.0648  11.0253  11.0253  11.0375  11.0375
    11.3180  11.3180  11.3198  11.3198  14.6572  14.6572  14.6925  14.6925
    15.2040  15.2040  15.2185  15.2185  15.5452  15.5452  15.8390  15.8390
    16.5795  16.5796

     the Fermi energy is     9.5368 ev

!    total energy              =   -2738.46767179 Ry

     total all-electron energy =    -16515.668582 Ry
     estimated scf accuracy    <       0.00000008 Ry
     smearing contrib. (-TS)   =      -0.00405773 Ry
     internal energy E=F+TS    =   -2738.46361406 Ry

     The total energy is F=E-TS. E is the sum of the following terms:
     one-electron contribution =   -1242.43232570 Ry
     hartree contribution      =     721.97379152 Ry
     xc contribution           =    -328.23169642 Ry
     ewald contribution        =   -1203.29154256 Ry
     one-center paw contrib.   =    -686.48184089 Ry

     total magnetization       =    16.00 Bohr mag/cell
     absolute magnetization    =    16.14 Bohr mag/cell

     convergence has been achieved in  13 iterations

     negative rho (up, down):  0.000E+00 1.654E-03

     Forces acting on atoms (cartesian axes, Ry/au):

     atom    1 type  1   force =     0.00000000   -0.00000000   -0.00000000
     atom    2 type  1   force =    -0.00000000    0.00000000    0.00000000
     atom    3 type  1   force =     0.00000000   -0.00000000    0.00000000
     atom    4 type  1   force =     0.00000000   -0.00000000    0.00000000
     atom    5 type  2   force =    -0.00295287    0.00022460   -0.00000000
     atom    6 type  2   force =     0.00295287   -0.00022460    0.00000000
     atom    7 type  2   force =    -0.00295287   -0.00022460    0.00000000
     atom    8 type  2   force =     0.00295287    0.00022460    0.00000000
     atom    9 type  3   force =    -0.00157545   -0.00467145    0.00000000
     atom   10 type  3   force =     0.00157545    0.00467145    0.00000000
     atom   11 type  3   force =    -0.00157545    0.00467145    0.00000000
     atom   12 type  3   force =     0.00157545   -0.00467145    0.00000000
     atom   13 type  4   force =    -0.00251878    0.00021585    0.00000000
     atom   14 type  4   force =     0.00251878   -0.00021585    0.00000000
     atom   15 type  4   force =    -0.00251878   -0.00021585    0.00000000
     atom   16 type  4   force =     0.00251878    0.00021585    0.00000000
     atom   17 type  4   force =     0.00105250   -0.00640982    0.00000000
     atom   18 type  4   force =    -0.00105250    0.00640982    0.00000000
     atom   19 type  4   force =     0.00105250    0.00640982    0.00000000
     atom   20 type  4   force =    -0.00105250   -0.00640982    0.00000000
     atom   21 type  4   force =     0.00309558    0.00254961   -0.00133547
     atom   22 type  4   force =    -0.00309558   -0.00254961    0.00133547
     atom   23 type  4   force =     0.00309558   -0.00254961    0.00133547
     atom   24 type  4   force =    -0.00309558    0.00254961   -0.00133547
     atom   25 type  4   force =    -0.00309558   -0.00254961   -0.00133547
     atom   26 type  4   force =     0.00309558    0.00254961    0.00133547
     atom   27 type  4   force =    -0.00309558    0.00254961    0.00133547
     atom   28 type  4   force =     0.00309558   -0.00254961   -0.00133547

     Total force =     0.021670     Total SCF correction =     0.000544


     Computing stress (Cartesian axis) and pressure


     negative rho (up, down):  0.000E+00 1.654E-03
          total   stress  (Ry/bohr**3)                   (kbar)     P=        0.73
  -0.00001231   0.00000000   0.00000000           -1.81        0.00        0.00
   0.00000000   0.00000891   0.00000000            0.00        1.31        0.00
   0.00000000   0.00000000   0.00001825            0.00        0.00        2.68

     Energy error            =      1.1E-03
     Gradient error          =      6.4E-03
     Cell gradient error     =      1.8E-05


     number of scf cycles    =   9
     number of bfgs steps    =   8

     enthalpy old            =   -2738.4665877553 Ry
     enthalpy new            =   -2738.4676717890 Ry

     CASE: enthalpy_new < enthalpy_old

     new trust radius        =       0.0181352929 bohr
     new conv_thr            =       0.0000000641 Ry

     new unit-cell volume =   2046.96896 a.u.^3 (   303.32950 Ang^3 )
     density =      3.77143 g/cm^3

CELL_PARAMETERS (angstrom)
   4.892619107   0.000000000   0.000000000
   0.000000000  10.420180649   0.000000000
   0.000000000   0.000000000   5.949740167

ATOMIC_POSITIONS (angstrom)
Fe            0.0000000000        0.0000000000       -0.0000000000
Fe            2.4463095534        5.2100903245       -0.0000000000
Fe            0.0000000000       -0.0000000000        2.9748700836
Fe            2.4463095534        5.2100903245        2.9748700836
Mg            0.0669390903        2.8672521684        4.4623051254
Mg            4.8256800164        7.5529284806        1.4874350418
Mg            2.5132486437        2.3428381561        1.4874350418
Mg            2.3793704630        8.0773424929        4.4623051254
Si            0.3637274702        4.2199461995        1.4874350418
Si            4.5288916366        6.2002344495        4.4623051254
Si            2.8100370235        0.9901441250        4.4623051254
Si            2.0825820832        9.4300365240        1.4874350418
O             1.1686294836        1.0256610642        4.4623051254
O             3.7239896231        9.3945195847        1.4874350418
O             3.6149390370        4.1844292603        1.4874350418
O             1.2776800697        6.2357513887        4.4623051254
O             1.4591825285        0.5602807567        1.4874350418
O             3.4334365782        9.8598998923        4.4623051254
O             3.9054920819        4.6498095678        4.4623051254
O             0.9871270249        5.7703710812        1.4874350418
O             1.0860380590        3.4935441297        2.7849996041
O             3.8065810477        6.9266365193        3.1647405630
O             3.5323476124        1.7165461948        3.1647405630
O             1.3602714944        8.7036344542        2.7849996041
O             3.8065810477        6.9266365193        5.7598696877
O             1.0860380590        3.4935441297        0.1898704794
O             1.3602714944        8.7036344542        0.1898704794
O             3.5323476124        1.7165461948        5.7598696877



     Writing output data file ./out/oliv.save/
     NEW-OLD atomic charge density approx. for the potential

     Check: negative core charge=   -0.000006

     negative rho (up, down):  0.000E+00 1.654E-03
     extrapolated charge  216.11057, renormalised to  216.00000
     Generating pointlists ...

     total cpu time spent up to now is     9295.1 secs

     Self-consistent Calculation

     iteration #  1     ecut=    60.00 Ry     beta= 0.30
     Davidson diagonalization with overlap
     ethr =  1.00E-06,  avg # of iterations =  8.2

     negative rho (up, down):  0.000E+00 1.662E-03

     total cpu time spent up to now is     9400.5 secs

     total energy              =   -2738.46752168 Ry
     estimated scf accuracy    <       0.00128231 Ry

     total magnetization       =    16.00 Bohr mag/cell
     absolute magnetization    =    16.14 Bohr mag/cell

     iteration #  2     ecut=    60.00 Ry     beta= 0.30
     Davidson diagonalization with overlap
     c_bands:  1 eigenvalues not converged
     ethr =  5.94E-07,  avg # of iterations =  6.6

     negative rho (up, down):  0.000E+00 1.657E-03

     total cpu time spent up to now is     9439.8 secs

     total energy              =   -2738.46827488 Ry
     estimated scf accuracy    <       0.00129595 Ry

     total magnetization       =    16.00 Bohr mag/cell
     absolute magnetization    =    16.13 Bohr mag/cell

     iteration #  3     ecut=    60.00 Ry     beta= 0.30
     Davidson diagonalization with overlap
     ethr =  5.94E-07,  avg # of iterations =  2.0

     negative rho (up, down):  0.000E+00 1.655E-03

     total cpu time spent up to now is     9468.9 secs

     total energy              =   -2738.46826711 Ry
     estimated scf accuracy    <       0.00032106 Ry

     total magnetization       =    16.00 Bohr mag/cell
     absolute magnetization    =    16.14 Bohr mag/cell

     iteration #  4     ecut=    60.00 Ry     beta= 0.30
     Davidson diagonalization with overlap
     ethr =  1.49E-07,  avg # of iterations =  4.1

     negative rho (up, down):  0.000E+00 1.654E-03

     total cpu time spent up to now is     9501.6 secs

     total energy              =   -2738.46830685 Ry
     estimated scf accuracy    <       0.00004304 Ry

     total magnetization       =    16.00 Bohr mag/cell
     absolute magnetization    =    16.14 Bohr mag/cell

     iteration #  5     ecut=    60.00 Ry     beta= 0.30
     Davidson diagonalization with overlap
     ethr =  1.99E-08,  avg # of iterations =  7.8

     negative rho (up, down):  0.000E+00 1.655E-03

     total cpu time spent up to now is     9558.5 secs

     total energy              =   -2738.46833441 Ry
     estimated scf accuracy    <       0.00002692 Ry

     total magnetization       =    16.00 Bohr mag/cell
     absolute magnetization    =    16.14 Bohr mag/cell

     iteration #  6     ecut=    60.00 Ry     beta= 0.30
     Davidson diagonalization with overlap
     ethr =  1.25E-08,  avg # of iterations =  2.8

     negative rho (up, down):  0.000E+00 1.655E-03

     total cpu time spent up to now is     9596.7 secs

     total energy              =   -2738.46833536 Ry
     estimated scf accuracy    <       0.00000827 Ry

     total magnetization       =    16.00 Bohr mag/cell
     absolute magnetization    =    16.14 Bohr mag/cell

     iteration #  7     ecut=    60.00 Ry     beta= 0.30
     Davidson diagonalization with overlap
     ethr =  3.83E-09,  avg # of iterations =  5.5

     negative rho (up, down):  0.000E+00 1.655E-03

     total cpu time spent up to now is     9649.6 secs

     total energy              =   -2738.46834030 Ry
     estimated scf accuracy    <       0.00001850 Ry

     total magnetization       =    16.00 Bohr mag/cell
     absolute magnetization    =    16.14 Bohr mag/cell

     iteration #  8     ecut=    60.00 Ry     beta= 0.30
     Davidson diagonalization with overlap
     ethr =  3.83E-09,  avg # of iterations =  2.0

     negative rho (up, down):  0.000E+00 1.655E-03

     total cpu time spent up to now is     9682.9 secs

     total energy              =   -2738.46833892 Ry
     estimated scf accuracy    <       0.00000612 Ry

     total magnetization       =    16.00 Bohr mag/cell
     absolute magnetization    =    16.14 Bohr mag/cell

     iteration #  9     ecut=    60.00 Ry     beta= 0.30
     Davidson diagonalization with overlap
     ethr =  2.83E-09,  avg # of iterations =  4.2

     negative rho (up, down):  0.000E+00 1.655E-03

     total cpu time spent up to now is     9721.8 secs

     total energy              =   -2738.46834180 Ry
     estimated scf accuracy    <       0.00000097 Ry

     total magnetization       =    16.00 Bohr mag/cell
     absolute magnetization    =    16.14 Bohr mag/cell

     iteration # 10     ecut=    60.00 Ry     beta= 0.30
     Davidson diagonalization with overlap
     ethr =  4.47E-10,  avg # of iterations =  5.6

     negative rho (up, down):  0.000E+00 1.655E-03

     total cpu time spent up to now is     9757.5 secs

     total energy              =   -2738.46834194 Ry
     estimated scf accuracy    <       0.00000036 Ry

     total magnetization       =    16.00 Bohr mag/cell
     absolute magnetization    =    16.14 Bohr mag/cell

     iteration # 11     ecut=    60.00 Ry     beta= 0.30
     Davidson diagonalization with overlap
     ethr =  1.66E-10,  avg # of iterations =  4.0

     negative rho (up, down):  0.000E+00 1.655E-03

     total cpu time spent up to now is     9799.5 secs

     total energy              =   -2738.46834266 Ry
     estimated scf accuracy    <       0.00000046 Ry

     total magnetization       =    16.00 Bohr mag/cell
     absolute magnetization    =    16.14 Bohr mag/cell

     iteration # 12     ecut=    60.00 Ry     beta= 0.30
     Davidson diagonalization with overlap
     ethr =  1.66E-10,  avg # of iterations =  3.5

     negative rho (up, down):  0.000E+00 1.655E-03

     Magnetic moment per site:
     atom:    1    charge:   13.3545    magn:    3.3507    constr:    0.0000
     atom:    2    charge:   13.3545    magn:    3.3507    constr:    0.0000
     atom:    3    charge:   13.3545    magn:    3.3507    constr:    0.0000
     atom:    4    charge:   13.3545    magn:    3.3507    constr:    0.0000
     atom:    5    charge:    8.0835    magn:    0.0009    constr:    0.0000
     atom:    6    charge:    8.0835    magn:    0.0009    constr:    0.0000
     atom:    7    charge:    8.0835    magn:    0.0009    constr:    0.0000
     atom:    8    charge:    8.0835    magn:    0.0009    constr:    0.0000
     atom:    9    charge:    0.3882    magn:    0.0014    constr:    0.0000
     atom:   10    charge:    0.3882    magn:    0.0014    constr:    0.0000
     atom:   11    charge:    0.3882    magn:    0.0014    constr:    0.0000
     atom:   12    charge:    0.3882    magn:    0.0014    constr:    0.0000
     atom:   13    charge:    4.0370    magn:    0.0791    constr:    0.0000
     atom:   14    charge:    4.0370    magn:    0.0791    constr:    0.0000
     atom:   15    charge:    4.0370    magn:    0.0791    constr:    0.0000
     atom:   16    charge:    4.0370    magn:    0.0791    constr:    0.0000
     atom:   17    charge:    4.0311    magn:    0.0836    constr:    0.0000
     atom:   18    charge:    4.0311    magn:    0.0836    constr:    0.0000
     atom:   19    charge:    4.0311    magn:    0.0836    constr:    0.0000
     atom:   20    charge:    4.0311    magn:    0.0836    constr:    0.0000
     atom:   21    charge:    4.0355    magn:    0.0450    constr:    0.0000
     atom:   22    charge:    4.0355    magn:    0.0450    constr:    0.0000
     atom:   23    charge:    4.0355    magn:    0.0450    constr:    0.0000
     atom:   24    charge:    4.0355    magn:    0.0450    constr:    0.0000
     atom:   25    charge:    4.0355    magn:    0.0450    constr:    0.0000
     atom:   26    charge:    4.0355    magn:    0.0450    constr:    0.0000
     atom:   27    charge:    4.0355    magn:    0.0450    constr:    0.0000
     atom:   28    charge:    4.0355    magn:    0.0450    constr:    0.0000

     total cpu time spent up to now is     9845.1 secs

     End of self-consistent calculation

 ------ SPIN UP ------------


          k = 0.0000 0.0000 0.0000 ( 15339 PWs)   bands (ev):

   -80.2074 -80.2073 -80.2049 -80.2049 -65.7761 -65.7761 -65.7760 -65.7760
   -46.7757 -46.7757 -46.7703 -46.7703 -46.1415 -46.1415 -46.1385 -46.1384
   -45.8860 -45.8860 -45.8501 -45.8501 -32.5449 -32.5449 -32.5425 -32.5425
   -32.5223 -32.5222 -32.5218 -32.5218 -32.5047 -32.5047 -32.5012 -32.5012
   -12.1258 -11.9056 -11.6132 -11.4590 -10.5785 -10.5397 -10.4941 -10.4387
   -10.3387 -10.1999 -10.1382 -10.1355 -10.1115 -10.0584  -9.9489  -9.8714
     0.2378   0.2882   0.8440   0.9376   0.9950   1.0147   1.6889   1.8879
     1.9428   2.0354   2.2282   2.3406   2.3899   3.1422   3.1846   3.3040
     3.3681   3.4452   3.4819   3.5409   3.6473   3.7148   3.8231   3.8291
     3.8380   3.8588   4.0231   4.0430   4.2278   4.2443   4.3176   4.4075
     4.5624   4.5642   4.5717   4.8003   4.9131   5.0555   5.1433   5.2291
     5.2307   5.2866   5.4530   5.6904   5.7464   5.8105   5.8300   5.8814
     5.9433   5.9659   6.1900   6.2441   6.2564   6.3854   6.8952   6.9073
     6.9527   7.0331   7.2785   7.3249   7.7613   7.9449   7.9774   7.9861
     8.0030   8.1980   8.2440   8.2900  10.8264  12.6217  13.4255  14.7137
    14.8476  15.3891  15.5247  15.5949  15.6314  15.7651  15.8760  16.0090
    16.1304  16.3443

          k = 0.0000 0.0000-0.3995 ( 15392 PWs)   bands (ev):

   -80.2061 -80.2061 -80.2061 -80.2061 -65.7761 -65.7761 -65.7760 -65.7760
   -46.7730 -46.7730 -46.7730 -46.7730 -46.1400 -46.1400 -46.1400 -46.1400
   -45.8682 -45.8682 -45.8682 -45.8682 -32.5437 -32.5437 -32.5437 -32.5437
   -32.5221 -32.5221 -32.5220 -32.5220 -32.5030 -32.5030 -32.5030 -32.5030
   -11.8199 -11.8199 -11.7297 -11.7297 -10.5310 -10.5310 -10.5068 -10.5068
   -10.3236 -10.3236 -10.1515 -10.1515 -10.0098 -10.0098  -9.9400  -9.9400
     0.5898   0.5898   0.6433   0.6433   1.5314   1.5314   1.6479   1.6479
     2.2293   2.2293   2.5891   2.5891   2.7689   2.7689   3.1083   3.1083
     3.1758   3.1758   3.2981   3.2981   3.5808   3.5808   3.8786   3.8786
     3.9509   3.9509   3.9606   3.9606   4.1495   4.1495   4.2493   4.2493
     4.4924   4.4924   4.7502   4.7502   4.7935   4.7935   4.9898   4.9898
     5.0942   5.0942   5.2284   5.2284   5.6245   5.6245   5.6788   5.6788
     6.2026   6.2026   6.2942   6.2942   6.7118   6.7118   6.7757   6.7757
     7.0907   7.0907   7.1590   7.1590   7.8695   7.8695   7.8850   7.8850
     8.0797   8.0797   8.0820   8.0820  12.7099  12.7099  13.7307  13.7307
    14.5967  14.5967  15.7923  15.7923  15.7991  15.7991  16.7781  16.7781
    16.8541  16.8587

          k =-0.4859 0.0000 0.0000 ( 15374 PWs)   bands (ev):

   -80.2074 -80.2074 -80.2049 -80.2049 -65.7761 -65.7761 -65.7760 -65.7760
   -46.7757 -46.7757 -46.7703 -46.7703 -46.1415 -46.1415 -46.1384 -46.1384
   -45.8860 -45.8860 -45.8501 -45.8501 -32.5438 -32.5438 -32.5438 -32.5438
   -32.5221 -32.5221 -32.5220 -32.5220 -32.5030 -32.5030 -32.5030 -32.5030
   -11.7283 -11.7283 -11.4142 -11.4142 -10.9000 -10.9000 -10.6334 -10.6334
   -10.3311 -10.3311 -10.0908 -10.0908 -10.0113 -10.0113  -9.9888  -9.9888
     0.4709   0.4709   0.6018   0.6018   2.0034   2.0034   2.0075   2.0075
     2.3130   2.3130   2.4124   2.4124   2.5564   2.5564   2.7195   2.7195
     2.9512   2.9512   3.0115   3.0115   3.0706   3.0706   3.6207   3.6207
     4.0548   4.0548   4.2126   4.2126   4.2781   4.2781   4.5219   4.5219
     4.6694   4.6694   4.7322   4.7322   4.8771   4.8771   5.1212   5.1212
     5.2504   5.2504   5.6704   5.6704   5.8430   5.8430   6.0349   6.0349
     6.1855   6.1855   6.3218   6.3218   6.3942   6.3942   6.9026   6.9026
     6.9469   6.9469   7.2781   7.2781   7.5595   7.5595   7.9969   7.9969
     8.1816   8.1816   8.2535   8.2535  13.3768  13.3768  14.0783  14.0783
    14.3097  14.3097  14.7867  14.7867  15.0856  15.0856  15.3389  15.3389
    15.9143  15.9143

          k =-0.4859 0.0000-0.3995 ( 15436 PWs)   bands (ev):

   -80.2062 -80.2062 -80.2062 -80.2062 -65.7761 -65.7761 -65.7761 -65.7761
   -46.7730 -46.7730 -46.7730 -46.7730 -46.1400 -46.1400 -46.1400 -46.1400
   -45.8682 -45.8682 -45.8682 -45.8682 -32.5438 -32.5438 -32.5438 -32.5438
   -32.5221 -32.5221 -32.5221 -32.5221 -32.5030 -32.5030 -32.5030 -32.5030
   -11.5765 -11.5765 -11.5346 -11.5346 -10.7759 -10.7759 -10.7595 -10.7595
   -10.2990 -10.2990 -10.1981 -10.1981 -10.0055 -10.0055  -9.9876  -9.9876
     0.6457   0.6457   0.7231   0.7231   1.9683   1.9683   2.2679   2.2679
     2.3961   2.3961   2.5166   2.5166   2.5751   2.5751   2.7082   2.7082
     3.0527   3.0527   3.0751   3.0751   3.4432   3.4432   3.5106   3.5106
     3.6303   3.6303   3.9213   3.9213   4.4042   4.4042   4.5238   4.5238
     4.6086   4.6086   4.6899   4.6899   4.7237   4.7237   4.9103   4.9103
     5.2500   5.2500   5.3572   5.3572   5.5403   5.5403   5.7055   5.7055
     6.2615   6.2615   6.2995   6.2995   6.7762   6.7762   6.7816   6.7816
     7.0678   7.0678   7.1011   7.1011   7.7846   7.7846   7.8104   7.8104
     8.1146   8.1146   8.1226   8.1226  14.2734  14.2734  14.2842  14.2842
    14.8569  14.8569  14.9003  14.9003  15.2857  15.2857  15.4855  15.4855
    16.3463  16.3463

 ------ SPIN DOWN ----------


          k = 0.0000 0.0000 0.0000 ( 15339 PWs)   bands (ev):

   -76.0769 -76.0768 -76.0741 -76.0741 -65.7754 -65.7754 -65.7753 -65.7753
   -42.3663 -42.3663 -42.3587 -42.3587 -42.1874 -42.1873 -42.1828 -42.1827
   -42.1569 -42.1569 -42.1142 -42.1142 -32.5445 -32.5444 -32.5421 -32.5420
   -32.5213 -32.5212 -32.5209 -32.5208 -32.5036 -32.5036 -32.5001 -32.5001
   -12.0012 -11.7735 -11.4997 -11.3365 -10.4217 -10.3723 -10.3327 -10.2722
   -10.2105 -10.0691 -10.0399  -9.9938  -9.9723  -9.9655  -9.8492  -9.7773
     0.4500   0.4528   0.9487   1.0258   1.1269   1.2361   1.9571   1.9850
     2.0427   2.3757   2.4745   2.5279   2.6395   3.2666   3.2905   3.4713
     3.6790   3.8454   3.9838   4.0470   4.0482   4.1240   4.1507   4.1592
     4.1653   4.2797   4.4105   4.4127   4.5632   4.7148   4.7285   4.7814
     4.9392   5.0096   5.0927   5.1985   5.2600   5.2778   5.3129   5.4109
     5.5703   5.7935   5.9003   5.9250   5.9306   5.9480   6.0556   6.1064
     8.9080   8.9481   9.1934   9.2905   9.6299   9.6687   9.8740   9.9810
    10.0291  10.0956  10.3989  10.4102  11.1412  11.1779  11.2175  11.2528
    11.3385  11.3871  11.3879  11.4045  11.4662  13.1288  13.5596  14.8576
    15.0291  15.6641  15.7616  15.8012  15.8714  15.9295  16.0941  16.2100
    16.3073  16.9506

          k = 0.0000 0.0000-0.3995 ( 15392 PWs)   bands (ev):

   -76.0756 -76.0756 -76.0756 -76.0756 -65.7753 -65.7753 -65.7753 -65.7753
   -42.3625 -42.3625 -42.3624 -42.3624 -42.1849 -42.1849 -42.1849 -42.1849
   -42.1359 -42.1359 -42.1359 -42.1359 -32.5433 -32.5433 -32.5433 -32.5433
   -32.5211 -32.5211 -32.5211 -32.5211 -32.5020 -32.5020 -32.5019 -32.5019
   -11.6956 -11.6956 -11.6045 -11.6045 -10.3670 -10.3670 -10.3441 -10.3441
   -10.2088 -10.2088 -10.0261 -10.0261  -9.9048  -9.9048  -9.8271  -9.8271
     0.7458   0.7458   0.8149   0.8149   1.7007   1.7007   1.7671   1.7671
     2.4088   2.4088   2.7978   2.7978   3.0139   3.0139   3.3349   3.3349
     3.5149   3.5149   3.7355   3.7355   3.9889   3.9889   4.1145   4.1145
     4.2966   4.2966   4.3567   4.3567   4.6091   4.6091   4.6383   4.6383
     4.9913   4.9913   5.0164   5.0164   5.2570   5.2570   5.3192   5.3192
     5.3398   5.3398   5.5907   5.5907   5.9612   5.9612   5.9640   5.9640
     9.3863   9.3863   9.4328   9.4328   9.7101   9.7101   9.7164   9.7164
    10.0048  10.0048  10.0806  10.0806  11.1441  11.1441  11.1710  11.1710
    11.3813  11.3813  11.4128  11.4128  13.0494  13.0494  14.1286  14.1286
    14.7934  14.7934  16.0441  16.0441  16.1279  16.1279  17.0204  17.0210
    17.1169  17.1178

          k =-0.4859 0.0000 0.0000 ( 15374 PWs)   bands (ev):

   -76.0770 -76.0770 -76.0741 -76.0741 -65.7753 -65.7753 -65.7753 -65.7753
   -42.3663 -42.3663 -42.3587 -42.3587 -42.1873 -42.1873 -42.1827 -42.1827
   -42.1570 -42.1570 -42.1142 -42.1142 -32.5433 -32.5433 -32.5433 -32.5433
   -32.5211 -32.5211 -32.5210 -32.5210 -32.5019 -32.5019 -32.5019 -32.5019
   -11.6081 -11.6081 -11.2943 -11.2943 -10.7333 -10.7333 -10.4864 -10.4864
   -10.1850 -10.1850  -9.9503  -9.9503  -9.9123  -9.9123  -9.8953  -9.8953
     0.6226   0.6226   0.6864   0.6864   2.1841   2.1841   2.2279   2.2279
     2.5455   2.5455   2.6272   2.6272   2.8694   2.8694   3.0009   3.0009
     3.2041   3.2041   3.2545   3.2545   3.4242   3.4242   3.8487   3.8487
     4.4025   4.4025   4.6365   4.6365   4.8735   4.8735   4.8898   4.8898
     5.0540   5.0540   5.1692   5.1692   5.4114   5.4114   5.4212   5.4212
     5.7061   5.7061   5.8562   5.8562   6.0026   6.0026   6.3742   6.3742
     8.9731   8.9731   9.2037   9.2037   9.6472   9.6472   9.9471   9.9471
    10.1322  10.1322  10.4480  10.4480  10.9155  10.9155  11.1572  11.1572
    11.4611  11.4611  11.4883  11.4883  13.6133  13.6133  14.2731  14.2731
    14.7188  14.7188  14.9606  14.9606  15.2211  15.2211  15.6615  15.6615
    16.5102  16.5102

          k =-0.4859 0.0000-0.3995 ( 15436 PWs)   bands (ev):

   -76.0756 -76.0756 -76.0756 -76.0756 -65.7753 -65.7753 -65.7753 -65.7753
   -42.3625 -42.3625 -42.3624 -42.3624 -42.1849 -42.1849 -42.1849 -42.1849
   -42.1359 -42.1359 -42.1359 -42.1359 -32.5434 -32.5434 -32.5433 -32.5433
   -32.5211 -32.5211 -32.5211 -32.5211 -32.5019 -32.5019 -32.5019 -32.5019
   -11.4552 -11.4552 -11.4113 -11.4113 -10.6170 -10.6170 -10.6072 -10.6072
   -10.1617 -10.1617 -10.0726 -10.0726  -9.8948  -9.8948  -9.8845  -9.8845
     0.7665   0.7665   0.8578   0.8578   2.2848   2.2848   2.5258   2.5258
     2.6527   2.6527   2.7297   2.7297   2.7859   2.7859   2.9338   2.9338
     3.2561   3.2561   3.2880   3.2880   3.6875   3.6875   3.7250   3.7250
     3.9009   3.9009   4.3041   4.3041   4.8001   4.8001   4.8417   4.8417
     4.9643   4.9643   5.3331   5.3331   5.3480   5.3480   5.4449   5.4449
     5.6070   5.6070   5.7091   5.7091   5.8969   5.8969   5.9634   5.9634
     9.3611   9.3611   9.3818   9.3818   9.7784   9.7784   9.7867   9.7867
    10.0428  10.0428  10.0570  10.0570  11.0134  11.0134  11.0253  11.0253
    11.3057  11.3057  11.3075  11.3075  14.6356  14.6356  14.6794  14.6794
    15.2064  15.2064  15.2266  15.2266  15.5263  15.5263  15.8351  15.8351
    16.5538  16.5539

     the Fermi energy is     9.5334 ev

!    total energy              =   -2738.46834286 Ry

     total all-electron energy =    -16515.669253 Ry
     estimated scf accuracy    <       0.00000004 Ry
     smearing contrib. (-TS)   =      -0.00396270 Ry
     internal energy E=F+TS    =   -2738.46438016 Ry

     The total energy is F=E-TS. E is the sum of the following terms:
     one-electron contribution =   -1242.94823637 Ry
     hartree contribution      =     722.18040205 Ry
     xc contribution           =    -328.22464704 Ry
     ewald contribution        =   -1202.98998933 Ry
     one-center paw contrib.   =    -686.48190948 Ry

     total magnetization       =    16.00 Bohr mag/cell
     absolute magnetization    =    16.14 Bohr mag/cell

     convergence has been achieved in  12 iterations

     negative rho (up, down):  0.000E+00 1.655E-03

     Forces acting on atoms (cartesian axes, Ry/au):

     atom    1 type  1   force =     0.00000000    0.00000000   -0.00000000
     atom    2 type  1   force =    -0.00000000   -0.00000000    0.00000000
     atom    3 type  1   force =     0.00000000    0.00000000   -0.00000000
     atom    4 type  1   force =     0.00000000    0.00000000    0.00000000
     atom    5 type  2   force =    -0.00275990    0.00217765    0.00000000
     atom    6 type  2   force =     0.00275990   -0.00217765    0.00000000
     atom    7 type  2   force =    -0.00275990   -0.00217765   -0.00000000
     atom    8 type  2   force =     0.00275990    0.00217765   -0.00000000
     atom    9 type  3   force =     0.00034673   -0.00146628   -0.00000000
     atom   10 type  3   force =    -0.00034673    0.00146628   -0.00000000
     atom   11 type  3   force =     0.00034673    0.00146628    0.00000000
     atom   12 type  3   force =    -0.00034673   -0.00146628    0.00000000
     atom   13 type  4   force =    -0.00186424   -0.00029203    0.00000000
     atom   14 type  4   force =     0.00186424    0.00029203    0.00000000
     atom   15 type  4   force =    -0.00186424    0.00029203    0.00000000
     atom   16 type  4   force =     0.00186424   -0.00029203   -0.00000000
     atom   17 type  4   force =     0.00114569   -0.00393270    0.00000000
     atom   18 type  4   force =    -0.00114569    0.00393270   -0.00000000
     atom   19 type  4   force =     0.00114569    0.00393270    0.00000000
     atom   20 type  4   force =    -0.00114569   -0.00393270    0.00000000
     atom   21 type  4   force =     0.00208472    0.00088424   -0.00086447
     atom   22 type  4   force =    -0.00208472   -0.00088424    0.00086447
     atom   23 type  4   force =     0.00208472   -0.00088424    0.00086447
     atom   24 type  4   force =    -0.00208472    0.00088424   -0.00086447
     atom   25 type  4   force =    -0.00208472   -0.00088424   -0.00086447
     atom   26 type  4   force =     0.00208472    0.00088424    0.00086447
     atom   27 type  4   force =    -0.00208472    0.00088424    0.00086447
     atom   28 type  4   force =     0.00208472   -0.00088424   -0.00086447

     Total force =     0.013670     Total SCF correction =     0.000374


     Computing stress (Cartesian axis) and pressure


     negative rho (up, down):  0.000E+00 1.655E-03
          total   stress  (Ry/bohr**3)                   (kbar)     P=       -0.93
  -0.00003784   0.00000000   0.00000000           -5.57        0.00        0.00
   0.00000000   0.00000729   0.00000000            0.00        1.07        0.00
   0.00000000   0.00000000   0.00001166            0.00        0.00        1.71

     Energy error            =      6.7E-04
     Gradient error          =      3.9E-03
     Cell gradient error     =      3.8E-05


     number of scf cycles    =  10
     number of bfgs steps    =   9

     enthalpy old            =   -2738.4676717890 Ry
     enthalpy new            =   -2738.4683428626 Ry

     CASE: enthalpy_new < enthalpy_old

     new trust radius        =       0.0171728095 bohr
     new conv_thr            =       0.0000000393 Ry

     new unit-cell volume =   2046.33557 a.u.^3 (   303.23565 Ang^3 )
     density =      3.77259 g/cm^3

CELL_PARAMETERS (angstrom)
   4.888079612   0.000000000   0.000000000
   0.000000000  10.428833382   0.000000000
   0.000000000   0.000000000   5.948483391

ATOMIC_POSITIONS (angstrom)
Fe            0.0000000000        0.0000000000       -0.0000000000
Fe            2.4440398059        5.2144166910       -0.0000000000
Fe            0.0000000000       -0.0000000000        2.9742416953
Fe            2.4440398059        5.2144166910        2.9742416953
Mg            0.0629187917        2.8699699772        4.4613625429
Mg            4.8251608202        7.5588634047        1.4871208476
Mg            2.5069585976        2.3444467138        1.4871208476
Mg            2.3811210143        8.0843866682        4.4613625429
Si            0.3607803635        4.2174755379        1.4871208476
Si            4.5272992483        6.2113578441        4.4613625429
Si            2.8048201694        0.9969411531        4.4613625429
Si            2.0832594424        9.4318922289        1.4871208476
O             1.1646431231        1.0310226394        4.4613625429
O             3.7234364888        9.3978107425        1.4871208476
O             3.6086829290        4.1833940516        1.4871208476
O             1.2793966829        6.2454393304        4.4613625429
O             1.4612395390        0.5523172399        1.4871208476
O             3.4268400729        9.8765161420        4.4613625429
O             3.9052793449        4.6620994510        4.4613625429
O             0.9828002670        5.7667339309        1.4871208476
O             1.0885624890        3.4973899784        2.7846356537
O             3.7995171229        6.9314434036        3.1638477368
O             3.5326022949        1.7170267126        3.1638477368
O             1.3554773170        8.7118066693        2.7846356537
O             3.7995171229        6.9314434036        5.7588773490
O             1.0885624890        3.4973899784        0.1896060416
O             1.3554773170        8.7118066693        0.1896060416
O             3.5326022949        1.7170267126        5.7588773490



     Writing output data file ./out/oliv.save/
     NEW-OLD atomic charge density approx. for the potential

     Check: negative core charge=   -0.000006

     negative rho (up, down):  0.000E+00 1.655E-03
     extrapolated charge  215.93315, renormalised to  216.00000
     Generating pointlists ...

     total cpu time spent up to now is     9887.8 secs

     Self-consistent Calculation

     iteration #  1     ecut=    60.00 Ry     beta= 0.30
     Davidson diagonalization with overlap
     ethr =  1.00E-06,  avg # of iterations =  8.5

     negative rho (up, down):  0.000E+00 1.650E-03

     total cpu time spent up to now is     9988.4 secs

     total energy              =   -2738.46842720 Ry
     estimated scf accuracy    <       0.00064422 Ry

     total magnetization       =    16.00 Bohr mag/cell
     absolute magnetization    =    16.13 Bohr mag/cell

     iteration #  2     ecut=    60.00 Ry     beta= 0.30
     Davidson diagonalization with overlap
     ethr =  2.98E-07,  avg # of iterations =  4.4

     negative rho (up, down):  0.000E+00 1.653E-03

     total cpu time spent up to now is    10035.4 secs

     total energy              =   -2738.46871472 Ry
     estimated scf accuracy    <       0.00049601 Ry

     total magnetization       =    16.00 Bohr mag/cell
     absolute magnetization    =    16.14 Bohr mag/cell

     iteration #  3     ecut=    60.00 Ry     beta= 0.30
     Davidson diagonalization with overlap
     ethr =  2.30E-07,  avg # of iterations =  2.0

     negative rho (up, down):  0.000E+00 1.655E-03

     total cpu time spent up to now is    10064.5 secs

     total energy              =   -2738.46871823 Ry
     estimated scf accuracy    <       0.00012171 Ry

     total magnetization       =    16.00 Bohr mag/cell
     absolute magnetization    =    16.14 Bohr mag/cell

     iteration #  4     ecut=    60.00 Ry     beta= 0.30
     Davidson diagonalization with overlap
     ethr =  5.63E-08,  avg # of iterations =  6.1

     negative rho (up, down):  0.000E+00 1.655E-03

     total cpu time spent up to now is    10099.6 secs

     total energy              =   -2738.46875405 Ry
     estimated scf accuracy    <       0.00001788 Ry

     total magnetization       =    16.00 Bohr mag/cell
     absolute magnetization    =    16.14 Bohr mag/cell

     iteration #  5     ecut=    60.00 Ry     beta= 0.30
     Davidson diagonalization with overlap
     ethr =  8.28E-09,  avg # of iterations =  6.5

     negative rho (up, down):  0.000E+00 1.655E-03

     total cpu time spent up to now is    10141.9 secs

     total energy              =   -2738.46876328 Ry
     estimated scf accuracy    <       0.00000386 Ry

     total magnetization       =    16.00 Bohr mag/cell
     absolute magnetization    =    16.14 Bohr mag/cell

     iteration #  6     ecut=    60.00 Ry     beta= 0.30
     Davidson diagonalization with overlap
     ethr =  1.78E-09,  avg # of iterations =  5.0

     negative rho (up, down):  0.000E+00 1.655E-03

     total cpu time spent up to now is    10176.9 secs

     total energy              =   -2738.46876484 Ry
     estimated scf accuracy    <       0.00000145 Ry

     total magnetization       =    16.00 Bohr mag/cell
     absolute magnetization    =    16.14 Bohr mag/cell

     iteration #  7     ecut=    60.00 Ry     beta= 0.30
     Davidson diagonalization with overlap
     ethr =  6.73E-10,  avg # of iterations =  4.6

     negative rho (up, down):  0.000E+00 1.655E-03

     total cpu time spent up to now is    10219.6 secs

     total energy              =   -2738.46876557 Ry
     estimated scf accuracy    <       0.00000087 Ry

     total magnetization       =    16.00 Bohr mag/cell
     absolute magnetization    =    16.14 Bohr mag/cell

     iteration #  8     ecut=    60.00 Ry     beta= 0.30
     Davidson diagonalization with overlap
     ethr =  4.05E-10,  avg # of iterations =  4.1

     negative rho (up, down):  0.000E+00 1.655E-03

     total cpu time spent up to now is    10262.2 secs

     total energy              =   -2738.46876620 Ry
     estimated scf accuracy    <       0.00000060 Ry

     total magnetization       =    16.00 Bohr mag/cell
     absolute magnetization    =    16.14 Bohr mag/cell

     iteration #  9     ecut=    60.00 Ry     beta= 0.30
     Davidson diagonalization with overlap
     ethr =  2.79E-10,  avg # of iterations =  3.0

     negative rho (up, down):  0.000E+00 1.655E-03

     total cpu time spent up to now is    10303.1 secs

     total energy              =   -2738.46876636 Ry
     estimated scf accuracy    <       0.00000032 Ry

     total magnetization       =    16.00 Bohr mag/cell
     absolute magnetization    =    16.14 Bohr mag/cell

     iteration # 10     ecut=    60.00 Ry     beta= 0.30
     Davidson diagonalization with overlap
     ethr =  1.50E-10,  avg # of iterations =  4.5

     negative rho (up, down):  0.000E+00 1.655E-03

     total cpu time spent up to now is    10347.3 secs

     total energy              =   -2738.46876663 Ry
     estimated scf accuracy    <       0.00000029 Ry

     total magnetization       =    16.00 Bohr mag/cell
     absolute magnetization    =    16.14 Bohr mag/cell

     iteration # 11     ecut=    60.00 Ry     beta= 0.30
     Davidson diagonalization with overlap
     ethr =  1.36E-10,  avg # of iterations =  3.0

     negative rho (up, down):  0.000E+00 1.655E-03

     Magnetic moment per site:
     atom:    1    charge:   13.3545    magn:    3.3511    constr:    0.0000
     atom:    2    charge:   13.3545    magn:    3.3511    constr:    0.0000
     atom:    3    charge:   13.3545    magn:    3.3511    constr:    0.0000
     atom:    4    charge:   13.3545    magn:    3.3511    constr:    0.0000
     atom:    5    charge:    8.0833    magn:    0.0009    constr:    0.0000
     atom:    6    charge:    8.0833    magn:    0.0009    constr:    0.0000
     atom:    7    charge:    8.0833    magn:    0.0009    constr:    0.0000
     atom:    8    charge:    8.0833    magn:    0.0009    constr:    0.0000
     atom:    9    charge:    0.3886    magn:    0.0014    constr:    0.0000
     atom:   10    charge:    0.3886    magn:    0.0014    constr:    0.0000
     atom:   11    charge:    0.3886    magn:    0.0014    constr:    0.0000
     atom:   12    charge:    0.3886    magn:    0.0014    constr:    0.0000
     atom:   13    charge:    4.0380    magn:    0.0788    constr:    0.0000
     atom:   14    charge:    4.0380    magn:    0.0788    constr:    0.0000
     atom:   15    charge:    4.0380    magn:    0.0788    constr:    0.0000
     atom:   16    charge:    4.0380    magn:    0.0788    constr:    0.0000
     atom:   17    charge:    4.0317    magn:    0.0837    constr:    0.0000
     atom:   18    charge:    4.0317    magn:    0.0837    constr:    0.0000
     atom:   19    charge:    4.0317    magn:    0.0837    constr:    0.0000
     atom:   20    charge:    4.0317    magn:    0.0837    constr:    0.0000
     atom:   21    charge:    4.0358    magn:    0.0448    constr:    0.0000
     atom:   22    charge:    4.0358    magn:    0.0448    constr:    0.0000
     atom:   23    charge:    4.0358    magn:    0.0448    constr:    0.0000
     atom:   24    charge:    4.0358    magn:    0.0448    constr:    0.0000
     atom:   25    charge:    4.0358    magn:    0.0448    constr:    0.0000
     atom:   26    charge:    4.0358    magn:    0.0448    constr:    0.0000
     atom:   27    charge:    4.0358    magn:    0.0448    constr:    0.0000
     atom:   28    charge:    4.0358    magn:    0.0448    constr:    0.0000

     total cpu time spent up to now is    10383.3 secs

     End of self-consistent calculation

 ------ SPIN UP ------------


          k = 0.0000 0.0000 0.0000 ( 15339 PWs)   bands (ev):

   -80.1982 -80.1982 -80.1957 -80.1957 -65.7753 -65.7753 -65.7752 -65.7752
   -46.7649 -46.7649 -46.7595 -46.7595 -46.1344 -46.1343 -46.1311 -46.1311
   -45.8765 -45.8765 -45.8406 -45.8406 -32.5440 -32.5439 -32.5415 -32.5415
   -32.5213 -32.5212 -32.5209 -32.5209 -32.5043 -32.5042 -32.5007 -32.5007
   -12.1289 -11.9089 -11.6209 -11.4646 -10.5773 -10.5341 -10.4963 -10.4395
   -10.3335 -10.1920 -10.1395 -10.1300 -10.1032 -10.0596  -9.9500  -9.8723
     0.2362   0.2962   0.8394   0.9404   1.0017   1.0179   1.6956   1.8942
     1.9426   2.0406   2.2302   2.3449   2.3909   3.1496   3.1862   3.3028
     3.3704   3.4450   3.4851   3.5488   3.6419   3.7194   3.8236   3.8328
     3.8367   3.8674   4.0274   4.0388   4.2279   4.2346   4.3235   4.4200
     4.5537   4.5772   4.5824   4.8125   4.9253   5.0640   5.1433   5.2217
     5.2331   5.2917   5.4574   5.6864   5.7536   5.8181   5.8264   5.8951
     5.9564   5.9788   6.1981   6.2510   6.2642   6.3922   6.8987   6.9112
     6.9594   7.0391   7.2962   7.3431   7.7688   7.9538   7.9854   7.9976
     8.0104   8.2093   8.2548   8.3008  10.8342  12.6329  13.4090  14.7157
    14.8656  15.4359  15.5588  15.5992  15.6174  15.7945  15.8684  16.0207
    16.1317  16.3664

          k = 0.0000 0.0000-0.3996 ( 15392 PWs)   bands (ev):

   -80.1970 -80.1970 -80.1970 -80.1970 -65.7753 -65.7753 -65.7753 -65.7753
   -46.7622 -46.7622 -46.7622 -46.7622 -46.1327 -46.1327 -46.1327 -46.1327
   -45.8587 -45.8587 -45.8587 -45.8587 -32.5427 -32.5427 -32.5427 -32.5427
   -32.5211 -32.5211 -32.5211 -32.5211 -32.5026 -32.5026 -32.5025 -32.5025
   -11.8239 -11.8239 -11.7352 -11.7352 -10.5286 -10.5286 -10.5064 -10.5064
   -10.3205 -10.3205 -10.1454 -10.1454 -10.0108 -10.0108  -9.9383  -9.9383
     0.5919   0.5919   0.6419   0.6419   1.5369   1.5369   1.6561   1.6561
     2.2299   2.2299   2.5958   2.5958   2.7670   2.7670   3.1081   3.1081
     3.1784   3.1784   3.3058   3.3058   3.5862   3.5862   3.8747   3.8747
     3.9496   3.9496   3.9651   3.9651   4.1511   4.1511   4.2529   4.2529
     4.4961   4.4961   4.7520   4.7520   4.8029   4.8029   5.0008   5.0008
     5.0952   5.0952   5.2303   5.2303   5.6267   5.6267   5.6829   5.6829
     6.2126   6.2126   6.3044   6.3044   6.7199   6.7199   6.7816   6.7816
     7.1022   7.1022   7.1701   7.1701   7.8771   7.8771   7.8914   7.8914
     8.0933   8.0933   8.0967   8.0967  12.7185  12.7185  13.7417  13.7417
    14.5827  14.5827  15.8184  15.8184  15.8229  15.8229  16.7754  16.7754
    16.8506  16.8506

          k =-0.4863 0.0000 0.0000 ( 15374 PWs)   bands (ev):

   -80.1982 -80.1982 -80.1957 -80.1957 -65.7753 -65.7753 -65.7753 -65.7753
   -46.7649 -46.7649 -46.7595 -46.7595 -46.1343 -46.1343 -46.1311 -46.1311
   -45.8765 -45.8765 -45.8406 -45.8406 -32.5428 -32.5428 -32.5428 -32.5428
   -32.5211 -32.5211 -32.5210 -32.5210 -32.5025 -32.5025 -32.5025 -32.5025
   -11.7289 -11.7289 -11.4182 -11.4182 -10.9025 -10.9025 -10.6395 -10.6395
   -10.3224 -10.3224 -10.0824 -10.0824 -10.0127 -10.0127  -9.9895  -9.9895
     0.4777   0.4777   0.6105   0.6105   2.0070   2.0070   2.0098   2.0098
     2.3169   2.3169   2.4177   2.4177   2.5574   2.5574   2.7212   2.7212
     2.9517   2.9517   3.0123   3.0123   3.0712   3.0712   3.6164   3.6164
     4.0573   4.0573   4.2118   4.2118   4.2800   4.2800   4.5244   4.5244
     4.6777   4.6777   4.7414   4.7414   4.8758   4.8758   5.1223   5.1223
     5.2542   5.2542   5.6789   5.6789   5.8482   5.8482   6.0473   6.0473
     6.1896   6.1896   6.3269   6.3269   6.3995   6.3995   6.9096   6.9096
     6.9510   6.9510   7.2964   7.2964   7.5683   7.5683   8.0036   8.0036
     8.1949   8.1949   8.2668   8.2668  13.3817  13.3817  14.0723  14.0723
    14.3326  14.3326  14.8218  14.8218  15.0994  15.0994  15.3507  15.3507
    15.9359  15.9359

          k =-0.4863 0.0000-0.3996 ( 15436 PWs)   bands (ev):

   -80.1970 -80.1970 -80.1970 -80.1970 -65.7753 -65.7753 -65.7753 -65.7753
   -46.7622 -46.7622 -46.7622 -46.7622 -46.1327 -46.1327 -46.1327 -46.1327
   -45.8587 -45.8587 -45.8587 -45.8587 -32.5428 -32.5428 -32.5428 -32.5428
   -32.5211 -32.5211 -32.5211 -32.5211 -32.5025 -32.5025 -32.5025 -32.5025
   -11.5780 -11.5780 -11.5370 -11.5370 -10.7800 -10.7800 -10.7648 -10.7648
   -10.2897 -10.2897 -10.1929 -10.1929 -10.0043 -10.0043  -9.9881  -9.9881
     0.6548   0.6548   0.7308   0.7308   1.9678   1.9678   2.2665   2.2665
     2.3984   2.3984   2.5168   2.5168   2.5789   2.5789   2.7101   2.7101
     3.0530   3.0530   3.0752   3.0752   3.4405   3.4405   3.5115   3.5115
     3.6378   3.6378   3.9240   3.9240   4.4165   4.4165   4.5251   4.5251
     4.6104   4.6104   4.7026   4.7026   4.7271   4.7271   4.9108   4.9108
     5.2593   5.2593   5.3667   5.3667   5.5396   5.5396   5.7020   5.7020
     6.2681   6.2681   6.3052   6.3052   6.7870   6.7870   6.7915   6.7915
     7.0782   7.0782   7.1119   7.1119   7.7927   7.7927   7.8167   7.8167
     8.1282   8.1282   8.1355   8.1355  14.2731  14.2731  14.2960  14.2960
    14.8796  14.8796  14.9303  14.9303  15.2765  15.2765  15.5008  15.5008
    16.3437  16.3438

 ------ SPIN DOWN ----------


          k = 0.0000 0.0000 0.0000 ( 15339 PWs)   bands (ev):

   -76.0671 -76.0669 -76.0643 -76.0642 -65.7746 -65.7746 -65.7745 -65.7745
   -42.3567 -42.3567 -42.3492 -42.3492 -42.1781 -42.1781 -42.1730 -42.1730
   -42.1462 -42.1462 -42.1039 -42.1039 -32.5435 -32.5434 -32.5410 -32.5410
   -32.5203 -32.5202 -32.5199 -32.5199 -32.5031 -32.5031 -32.4996 -32.4995
   -12.0046 -11.7770 -11.5077 -11.3423 -10.4216 -10.3674 -10.3358 -10.2739
   -10.2051 -10.0607 -10.0414  -9.9878  -9.9669  -9.9636  -9.8505  -9.7785
     0.4479   0.4614   0.9445   1.0290   1.1338   1.2388   1.9627   1.9913
     2.0423   2.3803   2.4762   2.5307   2.6452   3.2685   3.2977   3.4724
     3.6868   3.8477   3.9918   4.0383   4.0572   4.1275   4.1547   4.1602
     4.1632   4.2814   4.4098   4.4113   4.5635   4.7054   4.7197   4.7843
     4.9449   5.0244   5.1041   5.2070   5.2605   5.2797   5.3167   5.4018
     5.5749   5.7880   5.9016   5.9297   5.9382   5.9496   6.0695   6.1061
     8.9093   8.9494   9.2127   9.3089   9.6458   9.6836   9.8881   9.9942
    10.0380  10.1053  10.4071  10.4183  11.1514  11.1864  11.2271  11.2644
    11.3509  11.3964  11.3997  11.4158  11.4784  13.1428  13.5425  14.8577
    15.0477  15.7119  15.7951  15.8050  15.8948  15.9192  16.0684  16.2358
    16.3060  16.9324

          k = 0.0000 0.0000-0.3996 ( 15392 PWs)   bands (ev):

   -76.0657 -76.0657 -76.0657 -76.0657 -65.7745 -65.7745 -65.7745 -65.7745
   -42.3529 -42.3529 -42.3529 -42.3529 -42.1753 -42.1753 -42.1753 -42.1753
   -42.1255 -42.1255 -42.1255 -42.1255 -32.5422 -32.5422 -32.5422 -32.5422
   -32.5201 -32.5201 -32.5201 -32.5201 -32.5014 -32.5014 -32.5014 -32.5014
   -11.6998 -11.6998 -11.6102 -11.6102 -10.3650 -10.3650 -10.3446 -10.3446
   -10.2062 -10.2062 -10.0203 -10.0203  -9.9053  -9.9053  -9.8251  -9.8251
     0.7480   0.7480   0.8136   0.8136   1.7063   1.7063   1.7754   1.7754
     2.4093   2.4093   2.8039   2.8039   3.0122   3.0122   3.3351   3.3351
     3.5185   3.5185   3.7453   3.7453   3.9937   3.9937   4.1106   4.1106
     4.2951   4.2951   4.3610   4.3610   4.6128   4.6128   4.6360   4.6360
     4.9939   4.9939   5.0220   5.0220   5.2544   5.2544   5.3217   5.3217
     5.3446   5.3446   5.5971   5.5971   5.9627   5.9627   5.9694   5.9694
     9.3979   9.3979   9.4436   9.4436   9.7218   9.7218   9.7271   9.7271
    10.0150  10.0150  10.0916  10.0916  11.1538  11.1538  11.1809  11.1809
    11.3942  11.3942  11.4259  11.4259  13.0590  13.0590  14.1429  14.1429
    14.7795  14.7795  16.0578  16.0578  16.1539  16.1539  17.0506  17.0528
    17.1051  17.1077

          k =-0.4863 0.0000 0.0000 ( 15374 PWs)   bands (ev):

   -76.0671 -76.0671 -76.0642 -76.0642 -65.7745 -65.7745 -65.7745 -65.7745
   -42.3568 -42.3568 -42.3492 -42.3492 -42.1781 -42.1781 -42.1730 -42.1730
   -42.1462 -42.1462 -42.1039 -42.1039 -32.5423 -32.5423 -32.5423 -32.5423
   -32.5201 -32.5201 -32.5201 -32.5201 -32.5014 -32.5014 -32.5014 -32.5014
   -11.6089 -11.6089 -11.2987 -11.2987 -10.7365 -10.7365 -10.4930 -10.4930
   -10.1761 -10.1761  -9.9416  -9.9416  -9.9140  -9.9140  -9.8964  -9.8964
     0.6312   0.6312   0.6943   0.6943   2.1860   2.1860   2.2316   2.2316
     2.5497   2.5497   2.6304   2.6304   2.8689   2.8689   3.0039   3.0039
     3.2042   3.2042   3.2527   3.2527   3.4266   3.4266   3.8442   3.8442
     4.4002   4.4002   4.6391   4.6391   4.8710   4.8710   4.8952   4.8952
     5.0635   5.0635   5.1646   5.1646   5.4143   5.4143   5.4301   5.4301
     5.7071   5.7071   5.8650   5.8650   6.0053   6.0053   6.3782   6.3782
     8.9746   8.9746   9.2220   9.2220   9.6622   9.6622   9.9603   9.9603
    10.1405  10.1405  10.4557  10.4557  10.9230  10.9230  11.1663  11.1663
    11.4727  11.4727  11.5026  11.5026  13.6166  13.6166  14.2720  14.2720
    14.7383  14.7383  14.9968  14.9968  15.2458  15.2458  15.6682  15.6682
    16.5208  16.5208

          k =-0.4863 0.0000-0.3996 ( 15436 PWs)   bands (ev):

   -76.0658 -76.0658 -76.0658 -76.0658 -65.7745 -65.7745 -65.7745 -65.7745
   -42.3529 -42.3529 -42.3529 -42.3529 -42.1753 -42.1753 -42.1753 -42.1753
   -42.1255 -42.1255 -42.1255 -42.1255 -32.5423 -32.5423 -32.5423 -32.5423
   -32.5201 -32.5201 -32.5201 -32.5201 -32.5014 -32.5014 -32.5014 -32.5014
   -11.4569 -11.4569 -11.4141 -11.4141 -10.6219 -10.6219 -10.6132 -10.6132
   -10.1523 -10.1523 -10.0681 -10.0681  -9.8928  -9.8928  -9.8849  -9.8849
     0.7761   0.7761   0.8660   0.8660   2.2827   2.2827   2.5235   2.5235
     2.6563   2.6563   2.7338   2.7338   2.7824   2.7824   2.9411   2.9411
     3.2552   3.2552   3.2885   3.2885   3.6845   3.6845   3.7248   3.7248
     3.9079   3.9079   4.3039   4.3039   4.8021   4.8021   4.8478   4.8478
     4.9649   4.9649   5.3299   5.3299   5.3525   5.3525   5.4548   5.4548
     5.6187   5.6187   5.7151   5.7151   5.9020   5.9020   5.9617   5.9617
     9.3740   9.3740   9.3948   9.3948   9.7861   9.7861   9.7952   9.7952
    10.0528  10.0528  10.0672  10.0672  11.0223  11.0223  11.0338  11.0338
    11.3178  11.3178  11.3198  11.3198  14.6310  14.6310  14.6876  14.6876
    15.2348  15.2348  15.2558  15.2558  15.5286  15.5286  15.8555  15.8555
    16.5484  16.5485

     the Fermi energy is     9.5463 ev

!    total energy              =   -2738.46876677 Ry

     total all-electron energy =    -16515.669677 Ry
     estimated scf accuracy    <       0.00000001 Ry
     smearing contrib. (-TS)   =      -0.00393280 Ry
     internal energy E=F+TS    =   -2738.46483397 Ry

     The total energy is F=E-TS. E is the sum of the following terms:
     one-electron contribution =   -1243.30361265 Ry
     hartree contribution      =     722.40254144 Ry
     xc contribution           =    -328.24075746 Ry
     ewald contribution        =   -1202.84027228 Ry
     one-center paw contrib.   =    -686.48273302 Ry

     total magnetization       =    16.00 Bohr mag/cell
     absolute magnetization    =    16.14 Bohr mag/cell

     convergence has been achieved in  11 iterations

     negative rho (up, down):  0.000E+00 1.655E-03

     Forces acting on atoms (cartesian axes, Ry/au):

     atom    1 type  1   force =     0.00000000    0.00000000    0.00000000
     atom    2 type  1   force =    -0.00000000    0.00000000   -0.00000000
     atom    3 type  1   force =     0.00000000   -0.00000000    0.00000000
     atom    4 type  1   force =     0.00000000    0.00000000    0.00000000
     atom    5 type  2   force =    -0.00189792    0.00325911    0.00000000
     atom    6 type  2   force =     0.00189792   -0.00325911    0.00000000
     atom    7 type  2   force =    -0.00189792   -0.00325911    0.00000000
     atom    8 type  2   force =     0.00189792    0.00325911    0.00000000
     atom    9 type  3   force =     0.00149450    0.00018875    0.00000000
     atom   10 type  3   force =    -0.00149450   -0.00018875    0.00000000
     atom   11 type  3   force =     0.00149450   -0.00018875    0.00000000
     atom   12 type  3   force =    -0.00149450    0.00018875    0.00000000
     atom   13 type  4   force =    -0.00163450    0.00010237   -0.00000000
     atom   14 type  4   force =     0.00163450   -0.00010237    0.00000000
     atom   15 type  4   force =    -0.00163450   -0.00010237    0.00000000
     atom   16 type  4   force =     0.00163450    0.00010237    0.00000000
     atom   17 type  4   force =     0.00094110   -0.00005291    0.00000000
     atom   18 type  4   force =    -0.00094110    0.00005291    0.00000000
     atom   19 type  4   force =     0.00094110    0.00005291    0.00000000
     atom   20 type  4   force =    -0.00094110   -0.00005291    0.00000000
     atom   21 type  4   force =     0.00080182   -0.00113503    0.00004323
     atom   22 type  4   force =    -0.00080182    0.00113503   -0.00004323
     atom   23 type  4   force =     0.00080182    0.00113503   -0.00004323
     atom   24 type  4   force =    -0.00080182   -0.00113503    0.00004323
     atom   25 type  4   force =    -0.00080182    0.00113503    0.00004323
     atom   26 type  4   force =     0.00080182   -0.00113503   -0.00004323
     atom   27 type  4   force =    -0.00080182   -0.00113503   -0.00004323
     atom   28 type  4   force =     0.00080182    0.00113503    0.00004323

     Total force =     0.009784     Total SCF correction =     0.000208


     Computing stress (Cartesian axis) and pressure


     negative rho (up, down):  0.000E+00 1.655E-03
          total   stress  (Ry/bohr**3)                   (kbar)     P=        1.04
  -0.00002161   0.00000000   0.00000000           -3.18        0.00        0.00
   0.00000000   0.00002714   0.00000000            0.00        3.99        0.00
   0.00000000   0.00000000   0.00001565            0.00        0.00        2.30

     Energy error            =      4.2E-04
     Gradient error          =      3.3E-03
     Cell gradient error     =      2.7E-05


     number of scf cycles    =  11
     number of bfgs steps    =  10

     enthalpy old            =   -2738.4683428626 Ry
     enthalpy new            =   -2738.4687667680 Ry

     CASE: enthalpy_new < enthalpy_old

     new trust radius        =       0.0113450452 bohr
     new conv_thr            =       0.0000000326 Ry

     new unit-cell volume =   2047.73316 a.u.^3 (   303.44275 Ang^3 )
     density =      3.77002 g/cm^3

CELL_PARAMETERS (angstrom)
   4.882218633   0.000000000   0.000000000
   0.000000000  10.441910846   0.000000000
   0.000000000   0.000000000   5.952227982

ATOMIC_POSITIONS (angstrom)
Fe            0.0000000000        0.0000000000       -0.0000000000
Fe            2.4411093164        5.2209554231       -0.0000000000
Fe            0.0000000000       -0.0000000000        2.9761139912
Fe            2.4411093164        5.2209554231        2.9761139912
Mg            0.0595271994        2.8762427661        4.4641709868
Mg            4.8226914335        7.5656680801        1.4880569956
Mg            2.5006365158        2.3447126570        1.4880569956
Mg            2.3815821171        8.0971981892        4.4641709868
Si            0.3601649473        4.2196774982        1.4880569956
Si            4.5220536856        6.2222333481        4.4641709868
Si            2.8012742638        1.0012779249        4.4641709868
Si            2.0809443691        9.4406329213        1.4880569956
O             1.1605507138        1.0336466847        4.4641709868
O             3.7216679191        9.4082641615        1.4880569956
O             3.6016600303        4.1873087384        1.4880569956
O             1.2805586026        6.2546021078        4.4641709868
O             1.4613110090        0.5490381493        1.4880569956
O             3.4209076238        9.8928726969        4.4641709868
O             3.9024203255        4.6719172738        4.4641709868
O             0.9797983074        5.7699935724        1.4880569956
O             1.0896752118        3.5019456473        2.7859870136
O             3.7925434211        6.9399651990        3.1662409689
O             3.5307845282        1.7190097758        3.1662409689
O             1.3514341047        8.7229010704        2.7859870136
O             3.7925434211        6.9399651990        5.7621010048
O             1.0896752118        3.5019456473        0.1901269776
O             1.3514341047        8.7229010704        0.1901269776
O             3.5307845282        1.7190097758        5.7621010048



     Writing output data file ./out/oliv.save/
     NEW-OLD atomic charge density approx. for the potential

     Check: negative core charge=   -0.000006

     negative rho (up, down):  0.000E+00 1.655E-03
     extrapolated charge  216.14742, renormalised to  216.00000
     Generating pointlists ...

     total cpu time spent up to now is    10425.6 secs

     Self-consistent Calculation

     iteration #  1     ecut=    60.00 Ry     beta= 0.30
     Davidson diagonalization with overlap
     ethr =  1.00E-06,  avg # of iterations =  7.6

     negative rho (up, down):  0.000E+00 1.665E-03

     total cpu time spent up to now is    10521.3 secs

     total energy              =   -2738.46775022 Ry
     estimated scf accuracy    <       0.00141530 Ry

     total magnetization       =    16.00 Bohr mag/cell
     absolute magnetization    =    16.14 Bohr mag/cell

     iteration #  2     ecut=    60.00 Ry     beta= 0.30
     Davidson diagonalization with overlap
     ethr =  6.55E-07,  avg # of iterations =  4.9

     negative rho (up, down):  0.000E+00 1.660E-03

     total cpu time spent up to now is    10571.1 secs

     total energy              =   -2738.46895342 Ry
     estimated scf accuracy    <       0.00193356 Ry

     total magnetization       =    16.00 Bohr mag/cell
     absolute magnetization    =    16.13 Bohr mag/cell

     iteration #  3     ecut=    60.00 Ry     beta= 0.30
     Davidson diagonalization with overlap
     ethr =  6.55E-07,  avg # of iterations =  2.0

     negative rho (up, down):  0.000E+00 1.658E-03

     total cpu time spent up to now is    10604.3 secs

     total energy              =   -2738.46896823 Ry
     estimated scf accuracy    <       0.00053363 Ry

     total magnetization       =    16.00 Bohr mag/cell
     absolute magnetization    =    16.14 Bohr mag/cell

     iteration #  4     ecut=    60.00 Ry     beta= 0.30
     Davidson diagonalization with overlap
     ethr =  2.47E-07,  avg # of iterations =  2.6

     negative rho (up, down):  0.000E+00 1.656E-03

     total cpu time spent up to now is    10636.8 secs

     total energy              =   -2738.46894044 Ry
     estimated scf accuracy    <       0.00017229 Ry

     total magnetization       =    16.00 Bohr mag/cell
     absolute magnetization    =    16.14 Bohr mag/cell

     iteration #  5     ecut=    60.00 Ry     beta= 0.30
     Davidson diagonalization with overlap
     ethr =  7.98E-08,  avg # of iterations =  6.5

     negative rho (up, down):  0.000E+00 1.656E-03

     total cpu time spent up to now is    10680.3 secs

     total energy              =   -2738.46899159 Ry
     estimated scf accuracy    <       0.00000298 Ry

     total magnetization       =    16.00 Bohr mag/cell
     absolute magnetization    =    16.14 Bohr mag/cell

     iteration #  6     ecut=    60.00 Ry     beta= 0.30
     Davidson diagonalization with overlap
     ethr =  1.38E-09,  avg # of iterations = 13.1

     negative rho (up, down):  0.000E+00 1.656E-03

     total cpu time spent up to now is    10771.2 secs

     total energy              =   -2738.46899804 Ry
     estimated scf accuracy    <       0.00000912 Ry

     total magnetization       =    16.00 Bohr mag/cell
     absolute magnetization    =    16.14 Bohr mag/cell

     iteration #  7     ecut=    60.00 Ry     beta= 0.30
     Davidson diagonalization with overlap
     ethr =  1.38E-09,  avg # of iterations =  3.5

     negative rho (up, down):  0.000E+00 1.657E-03

     total cpu time spent up to now is    10821.3 secs

     total energy              =   -2738.46899920 Ry
     estimated scf accuracy    <       0.00000143 Ry

     total magnetization       =    16.00 Bohr mag/cell
     absolute magnetization    =    16.14 Bohr mag/cell

     iteration #  8     ecut=    60.00 Ry     beta= 0.30
     Davidson diagonalization with overlap
     ethr =  6.61E-10,  avg # of iterations =  4.9

     negative rho (up, down):  0.000E+00 1.656E-03

     total cpu time spent up to now is    10869.3 secs

     total energy              =   -2738.46899930 Ry
     estimated scf accuracy    <       0.00000290 Ry

     total magnetization       =    16.00 Bohr mag/cell
     absolute magnetization    =    16.14 Bohr mag/cell

     iteration #  9     ecut=    60.00 Ry     beta= 0.30
     Davidson diagonalization with overlap
     ethr =  6.61E-10,  avg # of iterations =  2.8

     negative rho (up, down):  0.000E+00 1.656E-03

     total cpu time spent up to now is    10898.0 secs

     total energy              =   -2738.46899948 Ry
     estimated scf accuracy    <       0.00000033 Ry

     total magnetization       =    16.00 Bohr mag/cell
     absolute magnetization    =    16.14 Bohr mag/cell

     iteration # 10     ecut=    60.00 Ry     beta= 0.30
     Davidson diagonalization with overlap
     ethr =  1.51E-10,  avg # of iterations =  6.0

     negative rho (up, down):  0.000E+00 1.656E-03

     total cpu time spent up to now is    10946.3 secs

     total energy              =   -2738.46899964 Ry
     estimated scf accuracy    <       0.00000027 Ry

     total magnetization       =    16.00 Bohr mag/cell
     absolute magnetization    =    16.14 Bohr mag/cell

     iteration # 11     ecut=    60.00 Ry     beta= 0.30
     Davidson diagonalization with overlap
     ethr =  1.26E-10,  avg # of iterations =  3.0

     negative rho (up, down):  0.000E+00 1.656E-03

     total cpu time spent up to now is    10981.2 secs

     total energy              =   -2738.46899975 Ry
     estimated scf accuracy    <       0.00000004 Ry

     total magnetization       =    16.00 Bohr mag/cell
     absolute magnetization    =    16.14 Bohr mag/cell

     iteration # 12     ecut=    60.00 Ry     beta= 0.30
     Davidson diagonalization with overlap
     ethr =  1.76E-11,  avg # of iterations =  6.6

     negative rho (up, down):  0.000E+00 1.656E-03

     total cpu time spent up to now is    11054.4 secs

     total energy              =   -2738.46899973 Ry
     estimated scf accuracy    <       0.00000030 Ry

     total magnetization       =    16.00 Bohr mag/cell
     absolute magnetization    =    16.14 Bohr mag/cell

     iteration # 13     ecut=    60.00 Ry     beta= 0.30
     Davidson diagonalization with overlap
     ethr =  1.76E-11,  avg # of iterations =  5.6

     negative rho (up, down):  0.000E+00 1.656E-03

     Magnetic moment per site:
     atom:    1    charge:   13.3545    magn:    3.3514    constr:    0.0000
     atom:    2    charge:   13.3545    magn:    3.3514    constr:    0.0000
     atom:    3    charge:   13.3545    magn:    3.3514    constr:    0.0000
     atom:    4    charge:   13.3545    magn:    3.3514    constr:    0.0000
     atom:    5    charge:    8.0828    magn:    0.0010    constr:    0.0000
     atom:    6    charge:    8.0828    magn:    0.0010    constr:    0.0000
     atom:    7    charge:    8.0828    magn:    0.0010    constr:    0.0000
     atom:    8    charge:    8.0828    magn:    0.0010    constr:    0.0000
     atom:    9    charge:    0.3885    magn:    0.0014    constr:    0.0000
     atom:   10    charge:    0.3885    magn:    0.0014    constr:    0.0000
     atom:   11    charge:    0.3885    magn:    0.0014    constr:    0.0000
     atom:   12    charge:    0.3885    magn:    0.0014    constr:    0.0000
     atom:   13    charge:    4.0378    magn:    0.0787    constr:    0.0000
     atom:   14    charge:    4.0378    magn:    0.0787    constr:    0.0000
     atom:   15    charge:    4.0378    magn:    0.0787    constr:    0.0000
     atom:   16    charge:    4.0378    magn:    0.0787    constr:    0.0000
     atom:   17    charge:    4.0316    magn:    0.0836    constr:    0.0000
     atom:   18    charge:    4.0316    magn:    0.0836    constr:    0.0000
     atom:   19    charge:    4.0316    magn:    0.0836    constr:    0.0000
     atom:   20    charge:    4.0316    magn:    0.0836    constr:    0.0000
     atom:   21    charge:    4.0357    magn:    0.0447    constr:    0.0000
     atom:   22    charge:    4.0357    magn:    0.0447    constr:    0.0000
     atom:   23    charge:    4.0357    magn:    0.0447    constr:    0.0000
     atom:   24    charge:    4.0357    magn:    0.0447    constr:    0.0000
     atom:   25    charge:    4.0357    magn:    0.0447    constr:    0.0000
     atom:   26    charge:    4.0357    magn:    0.0447    constr:    0.0000
     atom:   27    charge:    4.0357    magn:    0.0447    constr:    0.0000
     atom:   28    charge:    4.0357    magn:    0.0447    constr:    0.0000

     total cpu time spent up to now is    11120.6 secs

     End of self-consistent calculation

 ------ SPIN UP ------------


          k = 0.0000 0.0000 0.0000 ( 15339 PWs)   bands (ev):

   -80.2020 -80.2019 -80.1995 -80.1995 -65.7904 -65.7904 -65.7903 -65.7903
   -46.7683 -46.7683 -46.7629 -46.7629 -46.1384 -46.1384 -46.1352 -46.1351
   -45.8801 -45.8801 -45.8445 -45.8445 -32.5591 -32.5591 -32.5566 -32.5566
   -32.5361 -32.5360 -32.5357 -32.5357 -32.5193 -32.5193 -32.5157 -32.5157
   -12.1349 -11.9155 -11.6302 -11.4735 -10.5781 -10.5361 -10.4995 -10.4427
   -10.3393 -10.1991 -10.1500 -10.1389 -10.1105 -10.0703  -9.9600  -9.8824
     0.2323   0.2957   0.8321   0.9367   0.9960   1.0095   1.6935   1.8895
     1.9333   2.0351   2.2254   2.3386   2.3782   3.1472   3.1719   3.2947
     3.3670   3.4397   3.4804   3.5490   3.6334   3.7142   3.8188   3.8196
     3.8345   3.8638   4.0224   4.0299   4.2218   4.2226   4.3158   4.4110
     4.5416   4.5702   4.5751   4.8119   4.9202   5.0677   5.1364   5.2075
     5.2228   5.2832   5.4583   5.6705   5.7430   5.8060   5.8115   5.8882
     5.9560   5.9781   6.1927   6.2462   6.2599   6.3863   6.8892   6.9015
     6.9570   7.0364   7.2943   7.3414   7.7656   7.9490   7.9808   7.9937
     8.0085   8.2057   8.2519   8.2967  10.8237  12.6252  13.3852  14.7013
    14.8605  15.4502  15.5660  15.5878  15.5961  15.7842  15.8456  16.0117
    16.1139  16.3653

          k = 0.0000 0.0000-0.3994 ( 15392 PWs)   bands (ev):

   -80.2007 -80.2007 -80.2007 -80.2007 -65.7903 -65.7903 -65.7903 -65.7903
   -46.7656 -46.7656 -46.7656 -46.7656 -46.1368 -46.1368 -46.1368 -46.1368
   -45.8625 -45.8625 -45.8624 -45.8624 -32.5579 -32.5579 -32.5579 -32.5579
   -32.5359 -32.5359 -32.5359 -32.5359 -32.5176 -32.5176 -32.5176 -32.5176
   -11.8311 -11.8311 -11.7432 -11.7432 -10.5315 -10.5315 -10.5084 -10.5084
   -10.3276 -10.3276 -10.1536 -10.1536 -10.0211 -10.0211  -9.9475  -9.9475
     0.5881   0.5881   0.6373   0.6373   1.5290   1.5290   1.6480   1.6480
     2.2229   2.2229   2.5908   2.5908   2.7594   2.7594   3.0993   3.0993
     3.1729   3.1729   3.3023   3.3023   3.5822   3.5822   3.8666   3.8666
     3.9419   3.9419   3.9591   3.9591   4.1417   4.1417   4.2445   4.2445
     4.4895   4.4895   4.7416   4.7416   4.8037   4.8037   4.9985   4.9985
     5.0846   5.0846   5.2237   5.2237   5.6164   5.6164   5.6732   5.6732
     6.2084   6.2084   6.3005   6.3005   6.7148   6.7148   6.7755   6.7755
     7.0993   7.0993   7.1674   7.1674   7.8739   7.8739   7.8876   7.8876
     8.0898   8.0898   8.0941   8.0941  12.7081  12.7081  13.7332  13.7332
    14.5598  14.5598  15.8176  15.8176  15.8308  15.8308  16.7505  16.7505
    16.8401  16.8401

          k =-0.4869 0.0000 0.0000 ( 15374 PWs)   bands (ev):

   -80.2020 -80.2020 -80.1995 -80.1995 -65.7903 -65.7903 -65.7903 -65.7903
   -46.7683 -46.7683 -46.7630 -46.7630 -46.1384 -46.1384 -46.1351 -46.1351
   -45.8801 -45.8801 -45.8446 -45.8446 -32.5579 -32.5579 -32.5579 -32.5579
   -32.5359 -32.5359 -32.5359 -32.5359 -32.5175 -32.5175 -32.5175 -32.5175
   -11.7327 -11.7327 -11.4257 -11.4257 -10.9060 -10.9060 -10.6463 -10.6463
   -10.3290 -10.3290 -10.0899 -10.0899 -10.0232 -10.0232  -9.9996  -9.9996
     0.4714   0.4714   0.6050   0.6050   2.0050   2.0050   2.0053   2.0053
     2.3117   2.3117   2.4185   2.4185   2.5517   2.5517   2.7132   2.7132
     2.9474   2.9474   3.0052   3.0052   3.0612   3.0612   3.6101   3.6101
     4.0500   4.0500   4.2043   4.2043   4.2692   4.2692   4.5192   4.5192
     4.6696   4.6696   4.7372   4.7372   4.8646   4.8646   5.1110   5.1110
     5.2451   5.2451   5.6742   5.6742   5.8433   5.8433   6.0461   6.0461
     6.1773   6.1773   6.3199   6.3199   6.3948   6.3948   6.9060   6.9060
     6.9406   6.9406   7.2949   7.2949   7.5650   7.5650   8.0008   8.0008
     8.1911   8.1911   8.2639   8.2639  13.3683  13.3683  14.0589  14.0589
    14.3308  14.3308  14.8270  14.8270  15.0842  15.0842  15.3443  15.3443
    15.9352  15.9352

          k =-0.4869 0.0000-0.3994 ( 15436 PWs)   bands (ev):

   -80.2008 -80.2008 -80.2008 -80.2008 -65.7903 -65.7903 -65.7903 -65.7903
   -46.7656 -46.7656 -46.7656 -46.7656 -46.1368 -46.1368 -46.1368 -46.1368
   -45.8625 -45.8625 -45.8625 -45.8625 -32.5580 -32.5580 -32.5580 -32.5580
   -32.5359 -32.5359 -32.5359 -32.5359 -32.5175 -32.5175 -32.5175 -32.5175
   -11.5834 -11.5834 -11.5425 -11.5425 -10.7847 -10.7847 -10.7707 -10.7707
   -10.2959 -10.2959 -10.2013 -10.2013 -10.0139 -10.0139  -9.9982  -9.9982
     0.6485   0.6485   0.7246   0.7246   1.9625   1.9625   2.2603   2.2603
     2.3932   2.3932   2.5100   2.5100   2.5761   2.5761   2.7064   2.7064
     3.0487   3.0487   3.0651   3.0651   3.4280   3.4280   3.5050   3.5050
     3.6294   3.6294   3.9188   3.9188   4.4110   4.4110   4.5198   4.5198
     4.6046   4.6046   4.6978   4.6978   4.7244   4.7244   4.9033   4.9033
     5.2514   5.2514   5.3606   5.3606   5.5279   5.5279   5.6894   5.6894
     6.2634   6.2634   6.3009   6.3009   6.7818   6.7818   6.7866   6.7866
     7.0749   7.0749   7.1089   7.1089   7.7901   7.7901   7.8133   7.8133
     8.1249   8.1249   8.1317   8.1317  14.2609  14.2609  14.2896  14.2896
    14.8778  14.8778  14.9295  14.9295  15.2565  15.2565  15.4952  15.4952
    16.3260  16.3261

 ------ SPIN DOWN ----------


          k = 0.0000 0.0000 0.0000 ( 15339 PWs)   bands (ev):

   -76.0706 -76.0704 -76.0678 -76.0677 -65.7896 -65.7896 -65.7895 -65.7895
   -42.3604 -42.3604 -42.3529 -42.3529 -42.1818 -42.1817 -42.1764 -42.1764
   -42.1490 -42.1490 -42.1073 -42.1072 -32.5586 -32.5585 -32.5561 -32.5561
   -32.5351 -32.5350 -32.5347 -32.5347 -32.5182 -32.5181 -32.5146 -32.5146
   -12.0107 -11.7838 -11.5171 -11.3513 -10.4224 -10.3693 -10.3391 -10.2773
   -10.2110 -10.0678 -10.0520  -9.9966  -9.9778  -9.9708  -9.8607  -9.7888
     0.4434   0.4606   0.9369   1.0252   1.1286   1.2306   1.9578   1.9891
     2.0330   2.3743   2.4637   2.5256   2.6387   3.2541   3.2945   3.4678
     3.6871   3.8411   3.9892   4.0270   4.0551   4.1216   4.1513   4.1526
     4.1591   4.2787   4.4005   4.4033   4.5566   4.6934   4.7076   4.7762
     4.9344   5.0230   5.0989   5.2106   5.2550   5.2667   5.3042   5.3876
     5.5760   5.7716   5.8895   5.9194   5.9261   5.9357   6.0624   6.0915
     8.9047   8.9446   9.2153   9.3112   9.6423   9.6800   9.8855   9.9908
    10.0350  10.1023  10.4010  10.4120  11.1477  11.1754  11.2245  11.2621
    11.3478  11.3922  11.3972  11.4137  11.4759  13.1353  13.5178  14.8418
    15.0424  15.7259  15.7934  15.8003  15.8816  15.8984  16.0315  16.2380
    16.2861  16.9088

          k = 0.0000 0.0000-0.3994 ( 15392 PWs)   bands (ev):

   -76.0692 -76.0692 -76.0692 -76.0692 -65.7896 -65.7896 -65.7896 -65.7896
   -42.3566 -42.3566 -42.3566 -42.3566 -42.1788 -42.1788 -42.1788 -42.1788
   -42.1286 -42.1286 -42.1286 -42.1286 -32.5574 -32.5574 -32.5574 -32.5574
   -32.5349 -32.5349 -32.5349 -32.5349 -32.5165 -32.5165 -32.5165 -32.5165
   -11.7072 -11.7072 -11.6184 -11.6184 -10.3681 -10.3681 -10.3467 -10.3467
   -10.2134 -10.2134 -10.0285 -10.0285  -9.9157  -9.9157  -9.8342  -9.8342
     0.7439   0.7439   0.8087   0.8087   1.6986   1.6986   1.7677   1.7677
     2.4017   2.4017   2.7993   2.7993   3.0028   3.0028   3.3252   3.3252
     3.5124   3.5124   3.7433   3.7433   3.9902   3.9902   4.1033   4.1033
     4.2875   4.2875   4.3570   4.3570   4.6051   4.6051   4.6261   4.6261
     4.9931   4.9931   5.0169   5.0169   5.2446   5.2446   5.3147   5.3147
     5.3322   5.3322   5.5908   5.5908   5.9490   5.9490   5.9591   5.9591
     9.3947   9.3947   9.4403   9.4403   9.7203   9.7203   9.7249   9.7249
    10.0115  10.0115  10.0881  10.0881  11.1503  11.1503  11.1771  11.1771
    11.3922  11.3922  11.4241  11.4241  13.0477  13.0477  14.1344  14.1344
    14.7564  14.7564  16.0536  16.0536  16.1592  16.1592  17.0345  17.0359
    17.0961  17.0974

          k =-0.4869 0.0000 0.0000 ( 15374 PWs)   bands (ev):

   -76.0706 -76.0706 -76.0677 -76.0677 -65.7896 -65.7896 -65.7896 -65.7896
   -42.3605 -42.3605 -42.3529 -42.3529 -42.1818 -42.1818 -42.1764 -42.1764
   -42.1491 -42.1491 -42.1073 -42.1073 -32.5574 -32.5574 -32.5574 -32.5574
   -32.5349 -32.5349 -32.5348 -32.5348 -32.5164 -32.5164 -32.5164 -32.5164
   -11.6130 -11.6130 -11.3064 -11.3064 -10.7401 -10.7401 -10.4999 -10.4999
   -10.1826 -10.1826  -9.9490  -9.9490  -9.9246  -9.9246  -9.9066  -9.9066
     0.6249   0.6249   0.6883   0.6883   2.1812   2.1812   2.2285   2.2285
     2.5485   2.5485   2.6284   2.6284   2.8628   2.8628   2.9950   2.9950
     3.1989   3.1989   3.2460   3.2460   3.4175   3.4175   3.8379   3.8379
     4.3871   4.3871   4.6295   4.6295   4.8592   4.8592   4.8907   4.8907
     5.0643   5.0643   5.1552   5.1552   5.4027   5.4027   5.4211   5.4211
     5.6951   5.6951   5.8599   5.8599   5.9994   5.9994   6.3655   6.3655
     8.9700   8.9700   9.2236   9.2236   9.6585   9.6585   9.9579   9.9579
    10.1366  10.1366  10.4486  10.4486  10.9188  10.9188  11.1636  11.1636
    11.4691  11.4691  11.5005  11.5005  13.6013  13.6013  14.2601  14.2601
    14.7345  14.7345  15.0019  15.0019  15.2375  15.2375  15.6571  15.6571
    16.5076  16.5076

          k =-0.4869 0.0000-0.3994 ( 15436 PWs)   bands (ev):

   -76.0692 -76.0692 -76.0692 -76.0692 -65.7896 -65.7896 -65.7896 -65.7896
   -42.3567 -42.3567 -42.3566 -42.3566 -42.1788 -42.1788 -42.1788 -42.1788
   -42.1286 -42.1286 -42.1286 -42.1286 -32.5575 -32.5575 -32.5574 -32.5574
   -32.5349 -32.5349 -32.5349 -32.5349 -32.5164 -32.5164 -32.5164 -32.5164
   -11.4625 -11.4625 -11.4199 -11.4199 -10.6267 -10.6267 -10.6192 -10.6192
   -10.1584 -10.1584 -10.0767 -10.0767  -9.9022  -9.9022  -9.8952  -9.8952
     0.7697   0.7697   0.8595   0.8595   2.2766   2.2766   2.5171   2.5171
     2.6513   2.6513   2.7323   2.7323   2.7735   2.7735   2.9415   2.9415
     3.2500   3.2500   3.2784   3.2784   3.6700   3.6700   3.7181   3.7181
     3.9002   3.9002   4.2970   4.2970   4.7937   4.7937   4.8408   4.8408
     4.9565   4.9565   5.3213   5.3213   5.3509   5.3509   5.4500   5.4500
     5.6141   5.6141   5.7055   5.7055   5.8950   5.8950   5.9481   5.9481
     9.3713   9.3713   9.3923   9.3923   9.7820   9.7820   9.7916   9.7916
    10.0495  10.0495  10.0641  10.0641  11.0185  11.0185  11.0293  11.0293
    11.3155  11.3155  11.3173  11.3173  14.6141  14.6141  14.6764  14.6764
    15.2357  15.2357  15.2555  15.2555  15.5140  15.5140  15.8532  15.8532
    16.5279  16.5280

     the Fermi energy is     9.5432 ev

!    total energy              =   -2738.46899978 Ry

     total all-electron energy =    -16515.669910 Ry
     estimated scf accuracy    <       0.00000002 Ry
     smearing contrib. (-TS)   =      -0.00394063 Ry
     internal energy E=F+TS    =   -2738.46505915 Ry

     The total energy is F=E-TS. E is the sum of the following terms:
     one-electron contribution =   -1244.12887279 Ry
     hartree contribution      =     722.75739287 Ry
     xc contribution           =    -328.23558789 Ry
     ewald contribution        =   -1202.37525332 Ry
     one-center paw contrib.   =    -686.48273801 Ry

     total magnetization       =    16.00 Bohr mag/cell
     absolute magnetization    =    16.14 Bohr mag/cell

     convergence has been achieved in  13 iterations

     negative rho (up, down):  0.000E+00 1.656E-03

     Forces acting on atoms (cartesian axes, Ry/au):

     atom    1 type  1   force =     0.00000000    0.00000000    0.00000000
     atom    2 type  1   force =     0.00000000    0.00000000   -0.00000000
     atom    3 type  1   force =     0.00000000    0.00000000    0.00000000
     atom    4 type  1   force =     0.00000000    0.00000000    0.00000000
     atom    5 type  2   force =    -0.00089119    0.00308216    0.00000000
     atom    6 type  2   force =     0.00089119   -0.00308216    0.00000000
     atom    7 type  2   force =    -0.00089119   -0.00308216    0.00000000
     atom    8 type  2   force =     0.00089119    0.00308216    0.00000000
     atom    9 type  3   force =     0.00085989    0.00131594    0.00000000
     atom   10 type  3   force =    -0.00085989   -0.00131594    0.00000000
     atom   11 type  3   force =     0.00085989   -0.00131594    0.00000000
     atom   12 type  3   force =    -0.00085989    0.00131594    0.00000000
     atom   13 type  4   force =    -0.00031785    0.00060115    0.00000000
     atom   14 type  4   force =     0.00031785   -0.00060115    0.00000000
     atom   15 type  4   force =    -0.00031785   -0.00060115    0.00000000
     atom   16 type  4   force =     0.00031785    0.00060115    0.00000000
     atom   17 type  4   force =     0.00079507    0.00068684    0.00000000
     atom   18 type  4   force =    -0.00079507   -0.00068684   -0.00000000
     atom   19 type  4   force =     0.00079507   -0.00068684    0.00000000
     atom   20 type  4   force =    -0.00079507    0.00068684    0.00000000
     atom   21 type  4   force =    -0.00017428   -0.00183787    0.00026498
     atom   22 type  4   force =     0.00017428    0.00183787   -0.00026498
     atom   23 type  4   force =    -0.00017428    0.00183787   -0.00026498
     atom   24 type  4   force =     0.00017428   -0.00183787    0.00026498
     atom   25 type  4   force =     0.00017428    0.00183787    0.00026498
     atom   26 type  4   force =    -0.00017428   -0.00183787   -0.00026498
     atom   27 type  4   force =     0.00017428   -0.00183787   -0.00026498
     atom   28 type  4   force =    -0.00017428    0.00183787    0.00026498

     Total force =     0.009228     Total SCF correction =     0.000235


     Computing stress (Cartesian axis) and pressure


     negative rho (up, down):  0.000E+00 1.656E-03
          total   stress  (Ry/bohr**3)                   (kbar)     P=        0.98
  -0.00001233   0.00000000   0.00000000           -1.81        0.00        0.00
   0.00000000   0.00002378   0.00000000            0.00        3.50        0.00
   0.00000000   0.00000000   0.00000850            0.00        0.00        1.25

     Energy error            =      2.3E-04
     Gradient error          =      3.1E-03
     Cell gradient error     =      2.4E-05


     number of scf cycles    =  12
     number of bfgs steps    =  11

     enthalpy old            =   -2738.4687667680 Ry
     enthalpy new            =   -2738.4689997768 Ry

     CASE: enthalpy_new < enthalpy_old

     new trust radius        =       0.0147831239 bohr
     new conv_thr            =       0.0000000233 Ry

     new unit-cell volume =   2049.33981 a.u.^3 (   303.68083 Ang^3 )
     density =      3.76706 g/cm^3

CELL_PARAMETERS (angstrom)
   4.875064866   0.000000000   0.000000000
   0.000000000  10.458966938   0.000000000
   0.000000000   0.000000000   5.955910822

ATOMIC_POSITIONS (angstrom)
Fe            0.0000000000        0.0000000000       -0.0000000000
Fe            2.4375324330        5.2294834690       -0.0000000000
Fe            0.0000000000       -0.0000000000        2.9779554111
Fe            2.4375324330        5.2294834690        2.9779554111
Mg            0.0561988652        2.8853547391        4.4669331167
Mg            4.8188660008        7.5736121990        1.4889777056
Mg            2.4937312983        2.3441287300        1.4889777056
Mg            2.3813335678        8.1148382081        4.4669331167
Si            0.3602256278        4.2248933034        1.4889777056
Si            4.5148392382        6.2340736346        4.4669331167
Si            2.7977580608        1.0045901656        4.4669331167
Si            2.0773068052        9.4543767724        1.4889777056
O             1.1566818928        1.0367619803        4.4669331167
O             3.7183829732        9.4222049578        1.4889777056
O             3.5942143259        4.1927214888        1.4889777056
O             1.2808505402        6.2662454493        4.4669331167
O             1.4611927293        0.5470601479        1.4889777056
O             3.4138721368        9.9119067902        4.4669331167
O             3.8987251623        4.6824233212        4.4669331167
O             0.9763397038        5.7765436169        1.4889777056
O             1.0897033354        3.5066608875        2.7872494309
O             3.7853615306        6.9523060505        3.1686613913
O             3.5272357685        1.7228225815        3.1686613913
O             1.3478290976        8.7361443565        2.7872494309
O             3.7853615306        6.9523060505        5.7652048420
O             1.0897033354        3.5066608875        0.1907059802
O             1.3478290976        8.7361443565        0.1907059802
O             3.5272357685        1.7228225815        5.7652048420



     Writing output data file ./out/oliv.save/
     NEW-OLD atomic charge density approx. for the potential

     Check: negative core charge=   -0.000006

     negative rho (up, down):  0.000E+00 1.657E-03
     extrapolated charge  216.16933, renormalised to  216.00000
     Generating pointlists ...

     total cpu time spent up to now is    11162.9 secs

     Self-consistent Calculation

     iteration #  1     ecut=    60.00 Ry     beta= 0.30
     Davidson diagonalization with overlap
     ethr =  1.00E-06,  avg # of iterations =  8.8

     negative rho (up, down):  0.000E+00 1.668E-03

     total cpu time spent up to now is    11265.6 secs

     total energy              =   -2738.46743610 Ry
     estimated scf accuracy    <       0.00203998 Ry

     total magnetization       =    16.00 Bohr mag/cell
     absolute magnetization    =    16.14 Bohr mag/cell

     iteration #  2     ecut=    60.00 Ry     beta= 0.30
     Davidson diagonalization with overlap
     ethr =  9.44E-07,  avg # of iterations =  4.6

     negative rho (up, down):  0.000E+00 1.662E-03

     total cpu time spent up to now is    11314.3 secs

     total energy              =   -2738.46909691 Ry
     estimated scf accuracy    <       0.00259073 Ry

     total magnetization       =    16.00 Bohr mag/cell
     absolute magnetization    =    16.13 Bohr mag/cell

     iteration #  3     ecut=    60.00 Ry     beta= 0.30
     Davidson diagonalization with overlap
     ethr =  9.44E-07,  avg # of iterations =  2.0

     negative rho (up, down):  0.000E+00 1.660E-03

     total cpu time spent up to now is    11349.5 secs

     total energy              =   -2738.46913341 Ry
     estimated scf accuracy    <       0.00067673 Ry

     total magnetization       =    16.00 Bohr mag/cell
     absolute magnetization    =    16.14 Bohr mag/cell

     iteration #  4     ecut=    60.00 Ry     beta= 0.30
     Davidson diagonalization with overlap
     ethr =  3.13E-07,  avg # of iterations =  3.1

     negative rho (up, down):  0.000E+00 1.658E-03

     total cpu time spent up to now is    11385.4 secs

     total energy              =   -2738.46912369 Ry
     estimated scf accuracy    <       0.00021262 Ry

     total magnetization       =    16.00 Bohr mag/cell
     absolute magnetization    =    16.14 Bohr mag/cell

     iteration #  5     ecut=    60.00 Ry     beta= 0.30
     Davidson diagonalization with overlap
     ethr =  9.84E-08,  avg # of iterations =  4.2

     negative rho (up, down):  0.000E+00 1.657E-03

     total cpu time spent up to now is    11431.9 secs

     total energy              =   -2738.46915005 Ry
     estimated scf accuracy    <       0.00002785 Ry

     total magnetization       =    16.00 Bohr mag/cell
     absolute magnetization    =    16.14 Bohr mag/cell

     iteration #  6     ecut=    60.00 Ry     beta= 0.30
     Davidson diagonalization with overlap
     ethr =  1.29E-08,  avg # of iterations =  7.4

     negative rho (up, down):  0.000E+00 1.657E-03

     total cpu time spent up to now is    11485.4 secs

     total energy              =   -2738.46917122 Ry
     estimated scf accuracy    <       0.00000620 Ry

     total magnetization       =    16.00 Bohr mag/cell
     absolute magnetization    =    16.14 Bohr mag/cell

     iteration #  7     ecut=    60.00 Ry     beta= 0.30
     Davidson diagonalization with overlap
     ethr =  2.87E-09,  avg # of iterations =  6.2

     negative rho (up, down):  0.000E+00 1.658E-03

     total cpu time spent up to now is    11520.2 secs

     total energy              =   -2738.46917074 Ry
     estimated scf accuracy    <       0.00000310 Ry

     total magnetization       =    16.00 Bohr mag/cell
     absolute magnetization    =    16.14 Bohr mag/cell

     iteration #  8     ecut=    60.00 Ry     beta= 0.30
     Davidson diagonalization with overlap
     ethr =  1.44E-09,  avg # of iterations =  4.6

     negative rho (up, down):  0.000E+00 1.658E-03

     total cpu time spent up to now is    11560.7 secs

     total energy              =   -2738.46917234 Ry
     estimated scf accuracy    <       0.00000251 Ry

     total magnetization       =    16.00 Bohr mag/cell
     absolute magnetization    =    16.14 Bohr mag/cell

     iteration #  9     ecut=    60.00 Ry     beta= 0.30
     Davidson diagonalization with overlap
     ethr =  1.16E-09,  avg # of iterations =  1.5

     negative rho (up, down):  0.000E+00 1.657E-03

     total cpu time spent up to now is    11587.5 secs

     total energy              =   -2738.46917177 Ry
     estimated scf accuracy    <       0.00000114 Ry

     total magnetization       =    16.00 Bohr mag/cell
     absolute magnetization    =    16.14 Bohr mag/cell

     iteration # 10     ecut=    60.00 Ry     beta= 0.30
     Davidson diagonalization with overlap
     ethr =  5.30E-10,  avg # of iterations =  4.4

     negative rho (up, down):  0.000E+00 1.657E-03

     total cpu time spent up to now is    11636.7 secs

     total energy              =   -2738.46917220 Ry
     estimated scf accuracy    <       0.00000028 Ry

     total magnetization       =    16.00 Bohr mag/cell
     absolute magnetization    =    16.14 Bohr mag/cell

     iteration # 11     ecut=    60.00 Ry     beta= 0.30
     Davidson diagonalization with overlap
     ethr =  1.30E-10,  avg # of iterations =  5.0

     negative rho (up, down):  0.000E+00 1.657E-03

     total cpu time spent up to now is    11679.7 secs

     total energy              =   -2738.46917227 Ry
     estimated scf accuracy    <       0.00000003 Ry

     total magnetization       =    16.00 Bohr mag/cell
     absolute magnetization    =    16.14 Bohr mag/cell

     iteration # 12     ecut=    60.00 Ry     beta= 0.30
     Davidson diagonalization with overlap
     ethr =  1.40E-11,  avg # of iterations =  6.6

     negative rho (up, down):  0.000E+00 1.657E-03

     total cpu time spent up to now is    11764.9 secs

     total energy              =   -2738.46917226 Ry
     estimated scf accuracy    <       0.00000019 Ry

     total magnetization       =    16.00 Bohr mag/cell
     absolute magnetization    =    16.14 Bohr mag/cell

     iteration # 13     ecut=    60.00 Ry     beta= 0.30
     Davidson diagonalization with overlap
     ethr =  1.40E-11,  avg # of iterations =  6.0

     negative rho (up, down):  0.000E+00 1.657E-03

     Magnetic moment per site:
     atom:    1    charge:   13.3543    magn:    3.3516    constr:    0.0000
     atom:    2    charge:   13.3543    magn:    3.3516    constr:    0.0000
     atom:    3    charge:   13.3543    magn:    3.3516    constr:    0.0000
     atom:    4    charge:   13.3543    magn:    3.3516    constr:    0.0000
     atom:    5    charge:    8.0824    magn:    0.0010    constr:    0.0000
     atom:    6    charge:    8.0824    magn:    0.0010    constr:    0.0000
     atom:    7    charge:    8.0824    magn:    0.0010    constr:    0.0000
     atom:    8    charge:    8.0824    magn:    0.0010    constr:    0.0000
     atom:    9    charge:    0.3883    magn:    0.0014    constr:    0.0000
     atom:   10    charge:    0.3883    magn:    0.0014    constr:    0.0000
     atom:   11    charge:    0.3883    magn:    0.0014    constr:    0.0000
     atom:   12    charge:    0.3883    magn:    0.0014    constr:    0.0000
     atom:   13    charge:    4.0374    magn:    0.0788    constr:    0.0000
     atom:   14    charge:    4.0374    magn:    0.0788    constr:    0.0000
     atom:   15    charge:    4.0374    magn:    0.0788    constr:    0.0000
     atom:   16    charge:    4.0374    magn:    0.0788    constr:    0.0000
     atom:   17    charge:    4.0316    magn:    0.0835    constr:    0.0000
     atom:   18    charge:    4.0316    magn:    0.0835    constr:    0.0000
     atom:   19    charge:    4.0316    magn:    0.0835    constr:    0.0000
     atom:   20    charge:    4.0316    magn:    0.0835    constr:    0.0000
     atom:   21    charge:    4.0353    magn:    0.0447    constr:    0.0000
     atom:   22    charge:    4.0353    magn:    0.0447    constr:    0.0000
     atom:   23    charge:    4.0353    magn:    0.0447    constr:    0.0000
     atom:   24    charge:    4.0353    magn:    0.0447    constr:    0.0000
     atom:   25    charge:    4.0353    magn:    0.0447    constr:    0.0000
     atom:   26    charge:    4.0353    magn:    0.0447    constr:    0.0000
     atom:   27    charge:    4.0353    magn:    0.0447    constr:    0.0000
     atom:   28    charge:    4.0353    magn:    0.0447    constr:    0.0000

     total cpu time spent up to now is    11831.9 secs

     End of self-consistent calculation

 ------ SPIN UP ------------


          k = 0.0000 0.0000 0.0000 ( 15339 PWs)   bands (ev):

   -80.2123 -80.2123 -80.2099 -80.2099 -65.8031 -65.8031 -65.8030 -65.8030
   -46.7787 -46.7787 -46.7733 -46.7733 -46.1485 -46.1485 -46.1453 -46.1452
   -45.8905 -45.8904 -45.8552 -45.8552 -32.5719 -32.5719 -32.5694 -32.5694
   -32.5488 -32.5487 -32.5484 -32.5484 -32.5318 -32.5317 -32.5282 -32.5282
   -12.1412 -11.9232 -11.6381 -11.4822 -10.5793 -10.5438 -10.5018 -10.4459
   -10.3467 -10.2117 -10.1569 -10.1533 -10.1229 -10.0778  -9.9661  -9.8889
     0.2319   0.2945   0.8276   0.9336   0.9878   0.9988   1.6868   1.8831
     1.9241   2.0240   2.2214   2.3275   2.3604   3.1437   3.1505   3.2877
     3.3647   3.4358   3.4740   3.5456   3.6311   3.7051   3.8072   3.8127
     3.8267   3.8567   4.0184   4.0224   4.2186   4.2192   4.3049   4.3960
     4.5342   4.5592   4.5607   4.8074   4.9130   5.0700   5.1311   5.1972
     5.2116   5.2747   5.4627   5.6573   5.7261   5.7878   5.7994   5.8747
     5.9482   5.9699   6.1812   6.2351   6.2490   6.3755   6.8742   6.8864
     6.9484   7.0276   7.2845   7.3319   7.7555   7.9374   7.9702   7.9812
     8.0005   8.1946   8.2413   8.2842  10.8105  12.6113  13.3684  14.6822
    14.8465  15.4534  15.5666  15.5788  15.5789  15.7697  15.8316  16.0000
    16.0977  16.3556

          k = 0.0000 0.0000-0.3991 ( 15392 PWs)   bands (ev):

   -80.2111 -80.2111 -80.2111 -80.2111 -65.8030 -65.8030 -65.8030 -65.8030
   -46.7760 -46.7760 -46.7760 -46.7760 -46.1469 -46.1469 -46.1469 -46.1469
   -45.8729 -45.8729 -45.8729 -45.8729 -32.5707 -32.5707 -32.5707 -32.5707
   -32.5486 -32.5486 -32.5485 -32.5485 -32.5301 -32.5301 -32.5300 -32.5300
   -11.8385 -11.8385 -11.7512 -11.7512 -10.5377 -10.5377 -10.5109 -10.5109
   -10.3343 -10.3343 -10.1658 -10.1658 -10.0289 -10.0289  -9.9559  -9.9559
     0.5851   0.5851   0.6355   0.6355   1.5175   1.5175   1.6356   1.6356
     2.2154   2.2154   2.5824   2.5824   2.7514   2.7514   3.0888   3.0888
     3.1667   3.1667   3.2950   3.2950   3.5743   3.5743   3.8636   3.8636
     3.9357   3.9357   3.9525   3.9525   4.1310   4.1310   4.2336   4.2336
     4.4817   4.4817   4.7301   4.7301   4.8045   4.8045   4.9935   4.9935
     5.0722   5.0722   5.2198   5.2198   5.6043   5.6043   5.6598   5.6598
     6.1977   6.1977   6.2903   6.2903   6.7037   6.7037   6.7638   6.7638
     7.0893   7.0893   7.1577   7.1577   7.8650   7.8650   7.8782   7.8782
     8.0779   8.0779   8.0821   8.0821  12.6954  12.6954  13.7205  13.7205
    14.5426  14.5426  15.8134  15.8134  15.8300  15.8300  16.7279  16.7279
    16.8309  16.8310

          k =-0.4876 0.0000 0.0000 ( 15374 PWs)   bands (ev):

   -80.2123 -80.2123 -80.2099 -80.2099 -65.8030 -65.8030 -65.8030 -65.8030
   -46.7787 -46.7787 -46.7733 -46.7733 -46.1485 -46.1485 -46.1452 -46.1452
   -45.8905 -45.8905 -45.8552 -45.8552 -32.5707 -32.5707 -32.5707 -32.5707
   -32.5485 -32.5485 -32.5485 -32.5485 -32.5300 -32.5300 -32.5300 -32.5300
   -11.7377 -11.7377 -11.4329 -11.4329 -10.9085 -10.9085 -10.6509 -10.6509
   -10.3422 -10.3422 -10.1045 -10.1045 -10.0299 -10.0299 -10.0062 -10.0062
     0.4628   0.4628   0.5964   0.5964   1.9991   1.9991   2.0031   2.0031
     2.3041   2.3041   2.4201   2.4201   2.5457   2.5457   2.7033   2.7033
     2.9413   2.9413   2.9969   2.9969   3.0486   3.0486   3.6075   3.6075
     4.0403   4.0403   4.2010   4.2010   4.2559   4.2559   4.5131   4.5131
     4.6608   4.6608   4.7302   4.7302   4.8541   4.8541   5.0955   5.0955
     5.2368   5.2368   5.6653   5.6653   5.8394   5.8394   6.0375   6.0375
     6.1619   6.1619   6.3086   6.3086   6.3843   6.3843   6.8962   6.8962
     6.9249   6.9249   7.2855   7.2855   7.5553   7.5553   7.9916   7.9916
     8.1799   8.1799   8.2521   8.2521  13.3526  13.3526  14.0476  14.0476
    14.3184  14.3184  14.8240  14.8240  15.0713  15.0713  15.3361  15.3361
    15.9264  15.9264

          k =-0.4876 0.0000-0.3991 ( 15436 PWs)   bands (ev):

   -80.2111 -80.2111 -80.2111 -80.2111 -65.8031 -65.8031 -65.8030 -65.8030
   -46.7760 -46.7760 -46.7760 -46.7760 -46.1469 -46.1469 -46.1469 -46.1469
   -45.8730 -45.8730 -45.8729 -45.8729 -32.5708 -32.5708 -32.5708 -32.5708
   -32.5485 -32.5485 -32.5485 -32.5485 -32.5300 -32.5300 -32.5300 -32.5300
   -11.5896 -11.5896 -11.5488 -11.5488 -10.7878 -10.7878 -10.7743 -10.7743
   -10.3082 -10.3082 -10.2135 -10.2135 -10.0227 -10.0227 -10.0060 -10.0060
     0.6385   0.6385   0.7160   0.7160   1.9581   1.9581   2.2522   2.2522
     2.3837   2.3837   2.5008   2.5008   2.5734   2.5734   2.7034   2.7034
     3.0467   3.0467   3.0568   3.0568   3.4169   3.4169   3.5009   3.5009
     3.6162   3.6162   3.9138   3.9138   4.4003   4.4003   4.5160   4.5160
     4.5989   4.5989   4.6872   4.6872   4.7228   4.7228   4.8950   4.8950
     5.2387   5.2387   5.3520   5.3520   5.5159   5.5159   5.6761   5.6761
     6.2528   6.2528   6.2911   6.2911   6.7697   6.7697   6.7753   6.7753
     7.0649   7.0649   7.0992   7.0992   7.7819   7.7819   7.8049   7.8049
     8.1131   8.1131   8.1193   8.1193  14.2494  14.2494  14.2763  14.2763
    14.8651  14.8651  14.9193  14.9193  15.2445  15.2445  15.4881  15.4881
    16.3114  16.3115

 ------ SPIN DOWN ----------


          k = 0.0000 0.0000 0.0000 ( 15339 PWs)   bands (ev):

   -76.0807 -76.0805 -76.0779 -76.0778 -65.8023 -65.8023 -65.8022 -65.8022
   -42.3706 -42.3706 -42.3632 -42.3632 -42.1919 -42.1918 -42.1865 -42.1864
   -42.1588 -42.1588 -42.1174 -42.1174 -32.5714 -32.5713 -32.5689 -32.5689
   -32.5477 -32.5476 -32.5473 -32.5473 -32.5306 -32.5306 -32.5271 -32.5270
   -12.0170 -11.7914 -11.5250 -11.3600 -10.4229 -10.3764 -10.3408 -10.2797
   -10.2192 -10.0814 -10.0591 -10.0120  -9.9854  -9.9841  -9.8668  -9.7953
     0.4426   0.4584   0.9320   1.0217   1.1211   1.2211   1.9517   1.9827
     2.0242   2.3629   2.4457   2.5217   2.6270   3.2323   3.2904   3.4646
     3.6841   3.8359   3.9811   4.0236   4.0491   4.1125   4.1441   4.1498
     4.1561   4.2724   4.3892   4.4001   4.5485   4.6891   4.7000   4.7693
     4.9210   5.0158   5.0920   5.2123   5.2487   5.2522   5.2920   5.3773
     5.5800   5.7582   5.8785   5.9079   5.9093   5.9170   6.0486   6.0754
     8.8947   8.9339   9.2096   9.3052   9.6309   9.6687   9.8754   9.9800
    10.0259  10.0928  10.3885  10.3995  11.1361  11.1621  11.2146  11.2516
    11.3358  11.3812  11.3872  11.4038  11.4649  13.1212  13.5000  14.8221
    15.0283  15.7287  15.7842  15.7989  15.8691  15.8772  16.0069  16.2355
    16.2683  16.8946

          k = 0.0000 0.0000-0.3991 ( 15392 PWs)   bands (ev):

   -76.0793 -76.0793 -76.0793 -76.0793 -65.8023 -65.8023 -65.8023 -65.8023
   -42.3669 -42.3669 -42.3669 -42.3669 -42.1889 -42.1889 -42.1889 -42.1889
   -42.1386 -42.1386 -42.1386 -42.1386 -32.5701 -32.5701 -32.5701 -32.5701
   -32.5475 -32.5475 -32.5475 -32.5475 -32.5289 -32.5289 -32.5289 -32.5289
   -11.7145 -11.7145 -11.6264 -11.6264 -10.3744 -10.3744 -10.3484 -10.3484
   -10.2198 -10.2198 -10.0407 -10.0407  -9.9245  -9.9245  -9.8432  -9.8432
     0.7404   0.7404   0.8065   0.8065   1.6878   1.6878   1.7559   1.7559
     2.3939   2.3939   2.7925   2.7925   2.9921   2.9921   3.3137   3.3137
     3.5036   3.5036   3.7368   3.7368   3.9843   3.9843   4.1003   4.1003
     4.2814   4.2814   4.3543   4.3543   4.5926   4.5926   4.6176   4.6176
     4.9962   4.9962   5.0100   5.0100   5.2368   5.2368   5.3099   5.3099
     5.3146   5.3146   5.5844   5.5844   5.9310   5.9310   5.9455   5.9455
     9.3840   9.3840   9.4297   9.4297   9.7120   9.7120   9.7162   9.7162
    10.0012  10.0012  10.0775  10.0775  11.1399  11.1399  11.1661  11.1661
    11.3819  11.3819  11.4136  11.4136  13.0343  13.0343  14.1221  14.1221
    14.7388  14.7388  16.0491  16.0491  16.1562  16.1562  17.0115  17.0120
    17.0900  17.0908

          k =-0.4876 0.0000 0.0000 ( 15374 PWs)   bands (ev):

   -76.0807 -76.0807 -76.0779 -76.0779 -65.8023 -65.8023 -65.8023 -65.8023
   -42.3707 -42.3707 -42.3632 -42.3632 -42.1919 -42.1919 -42.1864 -42.1864
   -42.1588 -42.1588 -42.1174 -42.1174 -32.5702 -32.5702 -32.5702 -32.5702
   -32.5475 -32.5475 -32.5475 -32.5475 -32.5289 -32.5289 -32.5288 -32.5288
   -11.6179 -11.6179 -11.3136 -11.3136 -10.7423 -10.7423 -10.5044 -10.5044
   -10.1963 -10.1963  -9.9641  -9.9641  -9.9314  -9.9314  -9.9132  -9.9132
     0.6155   0.6155   0.6798   0.6798   2.1745   2.1745   2.2248   2.2248
     2.5462   2.5462   2.6291   2.6291   2.8570   2.8570   2.9813   2.9813
     3.1912   3.1912   3.2402   3.2402   3.4064   3.4064   3.8360   3.8360
     4.3713   4.3713   4.6205   4.6205   4.8485   4.8485   4.8853   4.8853
     5.0636   5.0636   5.1519   5.1519   5.3872   5.3872   5.4071   5.4071
     5.6847   5.6847   5.8506   5.8506   5.9956   5.9956   6.3499   6.3499
     8.9597   8.9597   9.2172   9.2172   9.6470   9.6470   9.9485   9.9485
    10.1261  10.1261  10.4354  10.4354  10.9084  10.9084  11.1540  11.1540
    11.4582  11.4582  11.4889  11.4889  13.5854  13.5854  14.2483  14.2483
    14.7230  14.7230  14.9986  14.9986  15.2266  15.2266  15.6454  15.6454
    16.4936  16.4936

          k =-0.4876 0.0000-0.3991 ( 15436 PWs)   bands (ev):

   -76.0794 -76.0794 -76.0794 -76.0794 -65.8023 -65.8023 -65.8023 -65.8023
   -42.3669 -42.3669 -42.3669 -42.3669 -42.1889 -42.1889 -42.1889 -42.1889
   -42.1386 -42.1386 -42.1386 -42.1386 -32.5703 -32.5703 -32.5702 -32.5702
   -32.5475 -32.5475 -32.5475 -32.5475 -32.5289 -32.5289 -32.5288 -32.5288
   -11.4687 -11.4687 -11.4261 -11.4261 -10.6295 -10.6295 -10.6225 -10.6225
   -10.1708 -10.1708 -10.0882 -10.0882  -9.9123  -9.9123  -9.9034  -9.9034
     0.7593   0.7593   0.8502   0.8502   2.2723   2.2723   2.5097   2.5097
     2.6419   2.6419   2.7310   2.7310   2.7627   2.7627   2.9421   2.9421
     3.2472   3.2472   3.2694   3.2694   3.6556   3.6556   3.7140   3.7140
     3.8890   3.8890   4.2917   4.2917   4.7832   4.7832   4.8308   4.8308
     4.9483   4.9483   5.3135   5.3135   5.3512   5.3512   5.4418   5.4418
     5.6064   5.6064   5.6929   5.6929   5.8884   5.8884   5.9329   5.9329
     9.3611   9.3611   9.3823   9.3823   9.7712   9.7712   9.7813   9.7813
    10.0396  10.0396  10.0543  10.0543  11.0085  11.0085  11.0184  11.0184
    11.3047  11.3047  11.3067  11.3067  14.6005  14.6005  14.6611  14.6611
    15.2244  15.2244  15.2463  15.2463  15.5028  15.5028  15.8476  15.8476
    16.5107  16.5108

     the Fermi energy is     9.5327 ev

!    total energy              =   -2738.46917231 Ry

     total all-electron energy =    -16515.670082 Ry
     estimated scf accuracy    <       0.00000001 Ry
     smearing contrib. (-TS)   =      -0.00394648 Ry
     internal energy E=F+TS    =   -2738.46522583 Ry

     The total energy is F=E-TS. E is the sum of the following terms:
     one-electron contribution =   -1244.65981389 Ry
     hartree contribution      =     722.94071228 Ry
     xc contribution           =    -328.22510672 Ry
     ewald contribution        =   -1202.03834797 Ry
     one-center paw contrib.   =    -686.48266953 Ry

     total magnetization       =    16.00 Bohr mag/cell
     absolute magnetization    =    16.14 Bohr mag/cell

     convergence has been achieved in  13 iterations

     negative rho (up, down):  0.000E+00 1.657E-03

     Forces acting on atoms (cartesian axes, Ry/au):

     atom    1 type  1   force =     0.00000000    0.00000000   -0.00000000
     atom    2 type  1   force =     0.00000000    0.00000000    0.00000000
     atom    3 type  1   force =    -0.00000000    0.00000000   -0.00000000
     atom    4 type  1   force =    -0.00000000    0.00000000    0.00000000
     atom    5 type  2   force =     0.00006294    0.00202190    0.00000000
     atom    6 type  2   force =    -0.00006294   -0.00202190   -0.00000000
     atom    7 type  2   force =     0.00006294   -0.00202190    0.00000000
     atom    8 type  2   force =    -0.00006294    0.00202190    0.00000000
     atom    9 type  3   force =     0.00012833    0.00084486    0.00000000
     atom   10 type  3   force =    -0.00012833   -0.00084486    0.00000000
     atom   11 type  3   force =     0.00012833   -0.00084486    0.00000000
     atom   12 type  3   force =    -0.00012833    0.00084486    0.00000000
     atom   13 type  4   force =     0.00037834    0.00064967    0.00000000
     atom   14 type  4   force =    -0.00037834   -0.00064967    0.00000000
     atom   15 type  4   force =     0.00037834   -0.00064967    0.00000000
     atom   16 type  4   force =    -0.00037834    0.00064967    0.00000000
     atom   17 type  4   force =     0.00030256    0.00047542    0.00000000
     atom   18 type  4   force =    -0.00030256   -0.00047542    0.00000000
     atom   19 type  4   force =     0.00030256   -0.00047542    0.00000000
     atom   20 type  4   force =    -0.00030256    0.00047542    0.00000000
     atom   21 type  4   force =    -0.00082099   -0.00141089   -0.00002846
     atom   22 type  4   force =     0.00082099    0.00141089    0.00002846
     atom   23 type  4   force =    -0.00082099    0.00141089    0.00002846
     atom   24 type  4   force =     0.00082099   -0.00141089   -0.00002846
     atom   25 type  4   force =     0.00082099    0.00141089   -0.00002846
     atom   26 type  4   force =    -0.00082099   -0.00141089    0.00002846
     atom   27 type  4   force =     0.00082099   -0.00141089    0.00002846
     atom   28 type  4   force =    -0.00082099    0.00141089   -0.00002846

     Total force =     0.006644     Total SCF correction =     0.000153


     Computing stress (Cartesian axis) and pressure


     negative rho (up, down):  0.000E+00 1.657E-03
          total   stress  (Ry/bohr**3)                   (kbar)     P=       -0.30
  -0.00000496   0.00000000   0.00000000           -0.73        0.00        0.00
   0.00000000   0.00000581   0.00000000            0.00        0.86        0.00
   0.00000000   0.00000000  -0.00000703            0.00        0.00       -1.03

     Energy error            =      1.7E-04
     Gradient error          =      2.0E-03
     Cell gradient error     =      7.0E-06


     number of scf cycles    =  13
     number of bfgs steps    =  12

     enthalpy old            =   -2738.4689997768 Ry
     enthalpy new            =   -2738.4691723108 Ry

     CASE: enthalpy_new < enthalpy_old

     new trust radius        =       0.0069088126 bohr
     new conv_thr            =       0.0000000173 Ry

     new unit-cell volume =   2048.90974 a.u.^3 (   303.61710 Ang^3 )
     density =      3.76786 g/cm^3

CELL_PARAMETERS (angstrom)
   4.871606044   0.000000000   0.000000000
   0.000000000  10.466947900   0.000000000
   0.000000000   0.000000000   5.954345112

ATOMIC_POSITIONS (angstrom)
Fe            0.0000000000        0.0000000000       -0.0000000000
Fe            2.4358030218        5.2334739499       -0.0000000000
Fe           -0.0000000000       -0.0000000000        2.9771725562
Fe            2.4358030218        5.2334739499        2.9771725562
Mg            0.0548919085        2.8903942610        4.4657588342
Mg            4.8167141350        7.5765536388        1.4885862781
Mg            2.4906949303        2.3430796889        1.4885862781
Mg            2.3809111133        8.1238682109        4.4657588342
Si            0.3603445718        4.2276486157        1.4885862781
Si            4.5112614717        6.2392992841        4.4657588342
Si            2.7961475936        1.0058253342        4.4657588342
Si            2.0754584499        9.4611225655        1.4885862781
O             1.1552695463        1.0392614786        4.4657588342
O             3.7163364972        9.4276864211        1.4885862781
O             3.5910725680        4.1942124712        1.4885862781
O             1.2805334755        6.2727354285        4.4657588342
O             1.4615450503        0.5463821928        1.4885862781
O             3.4100609933        9.9205657070        4.4657588342
O             3.8973480720        4.6870917571        4.4657588342
O             0.9742579715        5.7798561426        1.4885862781
O             1.0889187479        3.5078679497        2.7865028460
O             3.7826872956        6.9590799500        3.1678422663
O             3.5247217697        1.7256060002        3.1678422663
O             1.3468842738        8.7413418996        2.7865028460
O             3.7826872956        6.9590799500        5.7636754022
O             1.0889187479        3.5078679497        0.1906697101
O             1.3468842738        8.7413418996        0.1906697101
O             3.5247217697        1.7256060002        5.7636754022



     Writing output data file ./out/oliv.save/
     NEW-OLD atomic charge density approx. for the potential

     Check: negative core charge=   -0.000006

     negative rho (up, down):  0.000E+00 1.657E-03
     extrapolated charge  215.95466, renormalised to  216.00000
     Generating pointlists ...

     total cpu time spent up to now is    11871.0 secs

     Self-consistent Calculation

     iteration #  1     ecut=    60.00 Ry     beta= 0.30
     Davidson diagonalization with overlap
     ethr =  1.00E-06,  avg # of iterations =  5.6

     Threshold (ethr) on eigenvalues was too large:
     Diagonalizing with lowered threshold

     Davidson diagonalization with overlap
     ethr =  5.79E-08,  avg # of iterations =  3.2

     negative rho (up, down):  0.000E+00 1.654E-03

     total cpu time spent up to now is    11957.6 secs

     total energy              =   -2738.46912776 Ry
     estimated scf accuracy    <       0.00012747 Ry

     total magnetization       =    16.00 Bohr mag/cell
     absolute magnetization    =    16.14 Bohr mag/cell

     iteration #  2     ecut=    60.00 Ry     beta= 0.30
     Davidson diagonalization with overlap
     ethr =  5.90E-08,  avg # of iterations =  4.6

     negative rho (up, down):  0.000E+00 1.656E-03

     total cpu time spent up to now is    12000.7 secs

     total energy              =   -2738.46923320 Ry
     estimated scf accuracy    <       0.00018116 Ry

     total magnetization       =    16.00 Bohr mag/cell
     absolute magnetization    =    16.14 Bohr mag/cell

     iteration #  3     ecut=    60.00 Ry     beta= 0.30
     Davidson diagonalization with overlap
     ethr =  5.90E-08,  avg # of iterations =  2.0

     negative rho (up, down):  0.000E+00 1.657E-03

     total cpu time spent up to now is    12034.9 secs

     total energy              =   -2738.46923070 Ry
     estimated scf accuracy    <       0.00005271 Ry

     total magnetization       =    16.00 Bohr mag/cell
     absolute magnetization    =    16.14 Bohr mag/cell

     iteration #  4     ecut=    60.00 Ry     beta= 0.30
     Davidson diagonalization with overlap
     ethr =  2.44E-08,  avg # of iterations =  3.0

     negative rho (up, down):  0.000E+00 1.657E-03

     total cpu time spent up to now is    12072.1 secs

     total energy              =   -2738.46923079 Ry
     estimated scf accuracy    <       0.00001070 Ry

     total magnetization       =    16.00 Bohr mag/cell
     absolute magnetization    =    16.14 Bohr mag/cell

     iteration #  5     ecut=    60.00 Ry     beta= 0.30
     Davidson diagonalization with overlap
     ethr =  4.95E-09,  avg # of iterations =  6.0

     negative rho (up, down):  0.000E+00 1.657E-03

     total cpu time spent up to now is    12122.7 secs

     total energy              =   -2738.46923602 Ry
     estimated scf accuracy    <       0.00000248 Ry

     total magnetization       =    16.00 Bohr mag/cell
     absolute magnetization    =    16.14 Bohr mag/cell

     iteration #  6     ecut=    60.00 Ry     beta= 0.30
     Davidson diagonalization with overlap
     ethr =  1.15E-09,  avg # of iterations =  6.1

     negative rho (up, down):  0.000E+00 1.657E-03

     total cpu time spent up to now is    12163.0 secs

     total energy              =   -2738.46923608 Ry
     estimated scf accuracy    <       0.00000083 Ry

     total magnetization       =    16.00 Bohr mag/cell
     absolute magnetization    =    16.14 Bohr mag/cell

     iteration #  7     ecut=    60.00 Ry     beta= 0.30
     Davidson diagonalization with overlap
     ethr =  3.84E-10,  avg # of iterations =  6.5

     negative rho (up, down):  0.000E+00 1.657E-03

     total cpu time spent up to now is    12221.4 secs

     total energy              =   -2738.46923643 Ry
     estimated scf accuracy    <       0.00000197 Ry

     total magnetization       =    16.00 Bohr mag/cell
     absolute magnetization    =    16.14 Bohr mag/cell

     iteration #  8     ecut=    60.00 Ry     beta= 0.30
     Davidson diagonalization with overlap
     ethr =  3.84E-10,  avg # of iterations =  2.5

     negative rho (up, down):  0.000E+00 1.657E-03

     total cpu time spent up to now is    12257.8 secs

     total energy              =   -2738.46923644 Ry
     estimated scf accuracy    <       0.00000036 Ry

     total magnetization       =    16.00 Bohr mag/cell
     absolute magnetization    =    16.14 Bohr mag/cell

     iteration #  9     ecut=    60.00 Ry     beta= 0.30
     Davidson diagonalization with overlap
     ethr =  1.66E-10,  avg # of iterations =  5.1

     negative rho (up, down):  0.000E+00 1.657E-03

     total cpu time spent up to now is    12306.5 secs

     total energy              =   -2738.46923661 Ry
     estimated scf accuracy    <       0.00000012 Ry

     total magnetization       =    16.00 Bohr mag/cell
     absolute magnetization    =    16.14 Bohr mag/cell

     iteration # 10     ecut=    60.00 Ry     beta= 0.30
     Davidson diagonalization with overlap
     ethr =  5.40E-11,  avg # of iterations =  4.0

     negative rho (up, down):  0.000E+00 1.657E-03

     total cpu time spent up to now is    12336.8 secs

     total energy              =   -2738.46923662 Ry
     estimated scf accuracy    <       0.00000002 Ry

     total magnetization       =    16.00 Bohr mag/cell
     absolute magnetization    =    16.14 Bohr mag/cell

     iteration # 11     ecut=    60.00 Ry     beta= 0.30
     Davidson diagonalization with overlap
     ethr =  1.13E-11,  avg # of iterations =  5.9

     negative rho (up, down):  0.000E+00 1.657E-03

     total cpu time spent up to now is    12389.0 secs

     total energy              =   -2738.46923664 Ry
     estimated scf accuracy    <       0.00000003 Ry

     total magnetization       =    16.00 Bohr mag/cell
     absolute magnetization    =    16.14 Bohr mag/cell

     iteration # 12     ecut=    60.00 Ry     beta= 0.30
     Davidson diagonalization with overlap
     ethr =  1.13E-11,  avg # of iterations =  4.8

     negative rho (up, down):  0.000E+00 1.657E-03

     Magnetic moment per site:
     atom:    1    charge:   13.3541    magn:    3.3516    constr:    0.0000
     atom:    2    charge:   13.3541    magn:    3.3516    constr:    0.0000
     atom:    3    charge:   13.3541    magn:    3.3516    constr:    0.0000
     atom:    4    charge:   13.3541    magn:    3.3516    constr:    0.0000
     atom:    5    charge:    8.0827    magn:    0.0010    constr:    0.0000
     atom:    6    charge:    8.0827    magn:    0.0010    constr:    0.0000
     atom:    7    charge:    8.0827    magn:    0.0010    constr:    0.0000
     atom:    8    charge:    8.0827    magn:    0.0010    constr:    0.0000
     atom:    9    charge:    0.3884    magn:    0.0014    constr:    0.0000
     atom:   10    charge:    0.3884    magn:    0.0014    constr:    0.0000
     atom:   11    charge:    0.3884    magn:    0.0014    constr:    0.0000
     atom:   12    charge:    0.3884    magn:    0.0014    constr:    0.0000
     atom:   13    charge:    4.0375    magn:    0.0789    constr:    0.0000
     atom:   14    charge:    4.0375    magn:    0.0789    constr:    0.0000
     atom:   15    charge:    4.0375    magn:    0.0789    constr:    0.0000
     atom:   16    charge:    4.0375    magn:    0.0789    constr:    0.0000
     atom:   17    charge:    4.0318    magn:    0.0835    constr:    0.0000
     atom:   18    charge:    4.0318    magn:    0.0835    constr:    0.0000
     atom:   19    charge:    4.0318    magn:    0.0835    constr:    0.0000
     atom:   20    charge:    4.0318    magn:    0.0835    constr:    0.0000
     atom:   21    charge:    4.0354    magn:    0.0447    constr:    0.0000
     atom:   22    charge:    4.0354    magn:    0.0447    constr:    0.0000
     atom:   23    charge:    4.0354    magn:    0.0447    constr:    0.0000
     atom:   24    charge:    4.0354    magn:    0.0447    constr:    0.0000
     atom:   25    charge:    4.0354    magn:    0.0447    constr:    0.0000
     atom:   26    charge:    4.0354    magn:    0.0447    constr:    0.0000
     atom:   27    charge:    4.0354    magn:    0.0447    constr:    0.0000
     atom:   28    charge:    4.0354    magn:    0.0447    constr:    0.0000

     total cpu time spent up to now is    12430.2 secs

     End of self-consistent calculation

 ------ SPIN UP ------------


          k = 0.0000 0.0000 0.0000 ( 15339 PWs)   bands (ev):

   -80.2150 -80.2149 -80.2125 -80.2125 -65.7948 -65.7948 -65.7947 -65.7947
   -46.7811 -46.7811 -46.7758 -46.7758 -46.1513 -46.1513 -46.1480 -46.1480
   -45.8930 -45.8930 -45.8576 -45.8576 -32.5636 -32.5636 -32.5611 -32.5611
   -32.5407 -32.5406 -32.5403 -32.5403 -32.5233 -32.5233 -32.5198 -32.5197
   -12.1404 -11.9227 -11.6366 -11.4808 -10.5757 -10.5459 -10.4976 -10.4421
   -10.3447 -10.2146 -10.1572 -10.1524 -10.1257 -10.0738  -9.9607  -9.8839
     0.2386   0.2988   0.8325   0.9381   0.9881   0.9979   1.6856   1.8847
     1.9258   2.0213   2.2252   2.3247   2.3550   3.1430   3.1471   3.2909
     3.3690   3.4398   3.4746   3.5463   3.6391   3.7036   3.8095   3.8141
     3.8250   3.8577   4.0239   4.0254   4.2249   4.2293   4.3041   4.3944
     4.5392   4.5569   4.5590   4.8085   4.9160   5.0744   5.1355   5.2017
     5.2143   5.2789   5.4714   5.6610   5.7226   5.7839   5.8031   5.8736
     5.9457   5.9670   6.1782   6.2321   6.2459   6.3733   6.8716   6.8839
     6.9455   7.0247   7.2833   7.3310   7.7520   7.9359   7.9682   7.9774
     7.9990   8.1909   8.2385   8.2797  10.8135  12.6104  13.3764  14.6805
    14.8430  15.4579  15.5727  15.5839  15.5869  15.7757  15.8445  16.0042
    16.1044  16.3573

          k = 0.0000 0.0000-0.3992 ( 15392 PWs)   bands (ev):

   -80.2138 -80.2138 -80.2137 -80.2137 -65.7947 -65.7947 -65.7947 -65.7947
   -46.7784 -46.7784 -46.7784 -46.7784 -46.1496 -46.1496 -46.1496 -46.1496
   -45.8755 -45.8755 -45.8755 -45.8755 -32.5624 -32.5624 -32.5624 -32.5624
   -32.5405 -32.5405 -32.5404 -32.5404 -32.5216 -32.5216 -32.5216 -32.5216
   -11.8374 -11.8374 -11.7502 -11.7502 -10.5378 -10.5378 -10.5074 -10.5074
   -10.3316 -10.3316 -10.1678 -10.1678 -10.0252 -10.0252  -9.9533  -9.9533
     0.5896   0.5896   0.6417   0.6417   1.5161   1.5161   1.6340   1.6340
     2.2172   2.2172   2.5827   2.5827   2.7528   2.7528   3.0892   3.0892
     3.1688   3.1688   3.2946   3.2946   3.5734   3.5734   3.8709   3.8709
     3.9395   3.9395   3.9556   3.9556   4.1311   4.1311   4.2333   4.2333
     4.4839   4.4839   4.7312   4.7312   4.8100   4.8100   4.9960   4.9960
     5.0723   5.0723   5.2255   5.2255   5.6048   5.6048   5.6580   5.6580
     6.1949   6.1949   6.2879   6.2879   6.7019   6.7019   6.7617   6.7617
     7.0868   7.0868   7.1553   7.1553   7.8644   7.8644   7.8777   7.8777
     8.0734   8.0734   8.0772   8.0772  12.6992  12.6992  13.7220  13.7220
    14.5497  14.5497  15.8185  15.8185  15.8325  15.8325  16.7306  16.7306
    16.8381  16.8381

          k =-0.4879 0.0000 0.0000 ( 15374 PWs)   bands (ev):

   -80.2150 -80.2150 -80.2125 -80.2125 -65.7947 -65.7947 -65.7947 -65.7947
   -46.7811 -46.7811 -46.7758 -46.7758 -46.1513 -46.1513 -46.1480 -46.1480
   -45.8931 -45.8931 -45.8577 -45.8577 -32.5625 -32.5625 -32.5624 -32.5624
   -32.5405 -32.5405 -32.5404 -32.5404 -32.5216 -32.5216 -32.5215 -32.5215
   -11.7368 -11.7368 -11.4317 -11.4317 -10.9040 -10.9040 -10.6466 -10.6466
   -10.3461 -10.3461 -10.1092 -10.1092 -10.0251 -10.0251 -10.0015 -10.0015
     0.4641   0.4641   0.5973   0.5973   2.0000   2.0000   2.0068   2.0068
     2.3041   2.3041   2.4257   2.4257   2.5479   2.5479   2.7032   2.7032
     2.9421   2.9421   2.9975   2.9975   3.0482   3.0482   3.6138   3.6138
     4.0401   4.0401   4.2084   4.2084   4.2555   4.2555   4.5147   4.5147
     4.6639   4.6639   4.7318   4.7318   4.8565   4.8565   5.0926   5.0926
     5.2413   5.2413   5.6648   5.6648   5.8451   5.8451   6.0348   6.0348
     6.1615   6.1615   6.3067   6.3067   6.3819   6.3819   6.8928   6.8928
     6.9223   6.9223   7.2844   7.2844   7.5530   7.5530   7.9902   7.9902
     8.1785   8.1785   8.2470   8.2470  13.3551  13.3551  14.0522  14.0522
    14.3154  14.3154  14.8281  14.8281  15.0819  15.0819  15.3422  15.3422
    15.9270  15.9270

          k =-0.4879 0.0000-0.3992 ( 15436 PWs)   bands (ev):

   -80.2138 -80.2138 -80.2138 -80.2138 -65.7947 -65.7947 -65.7947 -65.7947
   -46.7784 -46.7784 -46.7784 -46.7784 -46.1497 -46.1497 -46.1496 -46.1496
   -45.8755 -45.8755 -45.8755 -45.8755 -32.5625 -32.5625 -32.5625 -32.5625
   -32.5405 -32.5405 -32.5405 -32.5405 -32.5216 -32.5216 -32.5215 -32.5215
   -11.5886 -11.5886 -11.5477 -11.5477 -10.7831 -10.7831 -10.7694 -10.7694
   -10.3117 -10.3117 -10.2156 -10.2156 -10.0204 -10.0204 -10.0024 -10.0024
     0.6388   0.6388   0.7177   0.7177   1.9614   1.9614   2.2520   2.2520
     2.3817   2.3817   2.5004   2.5004   2.5774   2.5774   2.7069   2.7069
     3.0523   3.0523   3.0606   3.0606   3.4194   3.4194   3.5064   3.5064
     3.6144   3.6144   3.9174   3.9174   4.3998   4.3998   4.5210   4.5210
     4.6017   4.6017   4.6859   4.6859   4.7278   4.7278   4.8961   4.8961
     5.2372   5.2372   5.3536   5.3536   5.5171   5.5171   5.6759   5.6759
     6.2502   6.2502   6.2889   6.2889   6.7674   6.7674   6.7734   6.7734
     7.0623   7.0623   7.0966   7.0966   7.7815   7.7815   7.8045   7.8045
     8.1091   8.1091   8.1150   8.1150  14.2539  14.2539  14.2752  14.2752
    14.8619  14.8619  14.9193  14.9193  15.2559  15.2559  15.4952  15.4952
    16.3176  16.3176

 ------ SPIN DOWN ----------


          k = 0.0000 0.0000 0.0000 ( 15339 PWs)   bands (ev):

   -76.0832 -76.0831 -76.0805 -76.0804 -65.7940 -65.7940 -65.7939 -65.7939
   -42.3728 -42.3728 -42.3654 -42.3654 -42.1947 -42.1946 -42.1892 -42.1892
   -42.1613 -42.1613 -42.1198 -42.1198 -32.5631 -32.5631 -32.5606 -32.5606
   -32.5396 -32.5395 -32.5393 -32.5392 -32.5222 -32.5221 -32.5186 -32.5186
   -12.0160 -11.7907 -11.5234 -11.3585 -10.4183 -10.3782 -10.3358 -10.2751
   -10.2176 -10.0851 -10.0546 -10.0168  -9.9877  -9.9813  -9.8614  -9.7903
     0.4493   0.4621   0.9367   1.0259   1.1217   1.2214   1.9535   1.9818
     2.0263   2.3604   2.4402   2.5261   2.6240   3.2244   3.2937   3.4689
     3.6852   3.8398   3.9794   4.0320   4.0502   4.1113   4.1476   4.1526
     4.1618   4.2719   4.3900   4.4067   4.5487   4.6983   4.7050   4.7745
     4.9206   5.0154   5.0953   5.2164   5.2498   5.2531   5.2955   5.3820
     5.5885   5.7618   5.8817   5.9041   5.9130   5.9135   6.0474   6.0753
     8.8905   8.9290   9.2077   9.3033   9.6287   9.6664   9.8730   9.9775
    10.0240  10.0905  10.3865  10.3979  11.1327  11.1657  11.2119  11.2479
    11.3316  11.3793  11.3845  11.4004  11.4605  13.1202  13.5078  14.8208
    15.0250  15.7332  15.7921  15.8047  15.8674  15.8902  16.0183  16.2423
    16.2748  16.9049

          k = 0.0000 0.0000-0.3992 ( 15392 PWs)   bands (ev):

   -76.0819 -76.0819 -76.0819 -76.0819 -65.7939 -65.7939 -65.7939 -65.7939
   -42.3691 -42.3691 -42.3691 -42.3691 -42.1916 -42.1916 -42.1916 -42.1916
   -42.1411 -42.1411 -42.1411 -42.1411 -32.5619 -32.5619 -32.5619 -32.5619
   -32.5394 -32.5394 -32.5394 -32.5394 -32.5205 -32.5205 -32.5205 -32.5205
   -11.7134 -11.7134 -11.6252 -11.6252 -10.3744 -10.3744 -10.3442 -10.3442
   -10.2166 -10.2166 -10.0427 -10.0427  -9.9217  -9.9217  -9.8411  -9.8411
     0.7446   0.7446   0.8127   0.8127   1.6870   1.6870   1.7549   1.7549
     2.3957   2.3957   2.7942   2.7942   2.9920   2.9920   3.3138   3.3138
     3.5032   3.5032   3.7361   3.7361   3.9852   3.9852   4.1071   4.1071
     4.2852   4.2852   4.3602   4.3602   4.5905   4.5905   4.6207   4.6207
     5.0047   5.0047   5.0121   5.0121   5.2408   5.2408   5.3111   5.3111
     5.3156   5.3156   5.5882   5.5882   5.9278   5.9278   5.9448   5.9448
     9.3807   9.3807   9.4264   9.4264   9.7104   9.7104   9.7146   9.7146
     9.9986   9.9986  10.0746  10.0746  11.1381  11.1381  11.1635  11.1635
    11.3778  11.3778  11.4093  11.4093  13.0387  13.0387  14.1250  14.1250
    14.7458  14.7458  16.0564  16.0564  16.1580  16.1580  17.0112  17.0113
    17.0965  17.0970

          k =-0.4879 0.0000 0.0000 ( 15374 PWs)   bands (ev):

   -76.0833 -76.0833 -76.0804 -76.0804 -65.7940 -65.7940 -65.7939 -65.7939
   -42.3729 -42.3729 -42.3654 -42.3654 -42.1947 -42.1947 -42.1892 -42.1892
   -42.1614 -42.1614 -42.1198 -42.1198 -32.5619 -32.5619 -32.5619 -32.5619
   -32.5394 -32.5394 -32.5394 -32.5394 -32.5204 -32.5204 -32.5204 -32.5204
   -11.6168 -11.6168 -11.3121 -11.3121 -10.7374 -10.7374 -10.4997 -10.4997
   -10.2007 -10.2007  -9.9691  -9.9691  -9.9266  -9.9266  -9.9085  -9.9085
     0.6161   0.6161   0.6811   0.6811   2.1754   2.1754   2.2276   2.2276
     2.5490   2.5490   2.6355   2.6355   2.8598   2.8598   2.9781   2.9781
     3.1907   3.1907   3.2433   3.2433   3.4070   3.4070   3.8428   3.8428
     4.3690   4.3690   4.6241   4.6241   4.8506   4.8506   4.8880   4.8880
     5.0674   5.0674   5.1607   5.1607   5.3850   5.3850   5.4053   5.4053
     5.6891   5.6891   5.8500   5.8500   6.0017   6.0017   6.3497   6.3497
     8.9552   8.9552   9.2153   9.2153   9.6446   9.6446   9.9467   9.9467
    10.1233  10.1233  10.4338  10.4338  10.9057  10.9057  11.1519  11.1519
    11.4562  11.4562  11.4835  11.4835  13.5895  13.5895  14.2515  14.2515
    14.7230  14.7230  15.0027  15.0027  15.2351  15.2351  15.6504  15.6504
    16.5007  16.5007

          k =-0.4879 0.0000-0.3992 ( 15436 PWs)   bands (ev):

   -76.0819 -76.0819 -76.0819 -76.0819 -65.7940 -65.7940 -65.7940 -65.7940
   -42.3691 -42.3691 -42.3691 -42.3691 -42.1916 -42.1916 -42.1916 -42.1916
   -42.1411 -42.1411 -42.1411 -42.1411 -32.5620 -32.5620 -32.5620 -32.5620
   -32.5394 -32.5394 -32.5394 -32.5394 -32.5204 -32.5204 -32.5204 -32.5204
   -11.4675 -11.4675 -11.4249 -11.4249 -10.6244 -10.6244 -10.6172 -10.6172
   -10.1745 -10.1745 -10.0897 -10.0897  -9.9110  -9.9110  -9.9000  -9.9000
     0.7592   0.7592   0.8516   0.8516   2.2763   2.2763   2.5102   2.5102
     2.6401   2.6401   2.7356   2.7356   2.7621   2.7621   2.9470   2.9470
     3.2525   3.2525   3.2725   3.2725   3.6557   3.6557   3.7195   3.7195
     3.8890   3.8890   4.2962   4.2962   4.7833   4.7833   4.8307   4.8307
     4.9511   4.9511   5.3160   5.3160   5.3579   5.3579   5.4422   5.4422
     5.6083   5.6083   5.6926   5.6926   5.8921   5.8921   5.9321   5.9321
     9.3582   9.3582   9.3794   9.3794   9.7686   9.7686   9.7790   9.7790
    10.0371  10.0371  10.0519  10.0519  11.0070  11.0070  11.0166  11.0166
    11.3005  11.3005  11.3027  11.3027  14.6071  14.6071  14.6622  14.6622
    15.2208  15.2208  15.2472  15.2472  15.5117  15.5117  15.8543  15.8543
    16.5166  16.5167

     the Fermi energy is     9.5301 ev

!    total energy              =   -2738.46923666 Ry

     total all-electron energy =    -16515.670147 Ry
     estimated scf accuracy    <          3.2E-09 Ry
     smearing contrib. (-TS)   =      -0.00391732 Ry
     internal energy E=F+TS    =   -2738.46531934 Ry

     The total energy is F=E-TS. E is the sum of the following terms:
     one-electron contribution =   -1244.21557101 Ry
     hartree contribution      =     722.73299570 Ry
     xc contribution           =    -328.22780620 Ry
     ewald contribution        =   -1202.27200497 Ry
     one-center paw contrib.   =    -686.48293287 Ry

     total magnetization       =    16.00 Bohr mag/cell
     absolute magnetization    =    16.14 Bohr mag/cell

     convergence has been achieved in  12 iterations

     negative rho (up, down):  0.000E+00 1.657E-03

     Forces acting on atoms (cartesian axes, Ry/au):

     atom    1 type  1   force =     0.00000000    0.00000000   -0.00000000
     atom    2 type  1   force =     0.00000000   -0.00000000    0.00000000
     atom    3 type  1   force =     0.00000000   -0.00000000   -0.00000000
     atom    4 type  1   force =     0.00000000    0.00000000    0.00000000
     atom    5 type  2   force =     0.00027545    0.00110644    0.00000000
     atom    6 type  2   force =    -0.00027545   -0.00110644    0.00000000
     atom    7 type  2   force =     0.00027545   -0.00110644    0.00000000
     atom    8 type  2   force =    -0.00027545    0.00110644    0.00000000
     atom    9 type  3   force =    -0.00031352   -0.00014573    0.00000000
     atom   10 type  3   force =     0.00031352    0.00014573    0.00000000
     atom   11 type  3   force =    -0.00031352    0.00014573    0.00000000
     atom   12 type  3   force =     0.00031352   -0.00014573    0.00000000
     atom   13 type  4   force =     0.00009089    0.00018106    0.00000000
     atom   14 type  4   force =    -0.00009089   -0.00018106    0.00000000
     atom   15 type  4   force =     0.00009089   -0.00018106    0.00000000
     atom   16 type  4   force =    -0.00009089    0.00018106    0.00000000
     atom   17 type  4   force =    -0.00018034    0.00012089    0.00000000
     atom   18 type  4   force =     0.00018034   -0.00012089   -0.00000000
     atom   19 type  4   force =    -0.00018034   -0.00012089    0.00000000
     atom   20 type  4   force =     0.00018034    0.00012089    0.00000000
     atom   21 type  4   force =    -0.00067052   -0.00070797   -0.00015220
     atom   22 type  4   force =     0.00067052    0.00070797    0.00015220
     atom   23 type  4   force =    -0.00067052    0.00070797    0.00015220
     atom   24 type  4   force =     0.00067052   -0.00070797   -0.00015220
     atom   25 type  4   force =     0.00067052    0.00070797   -0.00015220
     atom   26 type  4   force =    -0.00067052   -0.00070797    0.00015220
     atom   27 type  4   force =     0.00067052   -0.00070797    0.00015220
     atom   28 type  4   force =    -0.00067052    0.00070797   -0.00015220

     Total force =     0.003718     Total SCF correction =     0.000063


     Computing stress (Cartesian axis) and pressure


     negative rho (up, down):  0.000E+00 1.657E-03
          total   stress  (Ry/bohr**3)                   (kbar)     P=       -0.05
   0.00000448   0.00000000   0.00000000            0.66        0.00        0.00
   0.00000000  -0.00000036   0.00000000            0.00       -0.05        0.00
   0.00000000   0.00000000  -0.00000512            0.00        0.00       -0.75

     Energy error            =      6.4E-05
     Gradient error          =      1.1E-03
     Cell gradient error     =      5.1E-06


     number of scf cycles    =  14
     number of bfgs steps    =  13

     enthalpy old            =   -2738.4691723108 Ry
     enthalpy new            =   -2738.4692366591 Ry

     CASE: enthalpy_new < enthalpy_old

     new trust radius        =       0.0032566604 bohr
     new conv_thr            =       0.0000000064 Ry

     new unit-cell volume =   2048.61918 a.u.^3 (   303.57404 Ang^3 )
     density =      3.76839 g/cm^3

CELL_PARAMETERS (angstrom)
   4.871417570   0.000000000   0.000000000
   0.000000000  10.469634732   0.000000000
   0.000000000   0.000000000   5.952203134

ATOMIC_POSITIONS (angstrom)
Fe            0.0000000000        0.0000000000       -0.0000000000
Fe            2.4357087850        5.2348173661       -0.0000000000
Fe           -0.0000000000       -0.0000000000        2.9761015670
Fe            2.4357087850        5.2348173661        2.9761015670
Mg            0.0546474727        2.8927602896        4.4641523505
Mg            4.8167700973        7.5768744426        1.4880507835
Mg            2.4903562578        2.3420570765        1.4880507835
Mg            2.3810613123        8.1275776556        4.4641523505
Si            0.3602547619        4.2283289189        1.4880507835
Si            4.5111628082        6.2413058132        4.4641523505
Si            2.7959635469        1.0064884471        4.4641523505
Si            2.0754540232        9.4631462850        1.4880507835
O             1.1550542335        1.0406113269        4.4641523505
O             3.7163633366        9.4290234053        1.4880507835
O             3.5907630185        4.1942060392        1.4880507835
O             1.2806545515        6.2754286929        4.4641523505
O             1.4620216920        0.5461382656        1.4880507835
O             3.4093958781        9.9234964666        4.4641523505
O             3.8977304770        4.6886791005        4.4641523505
O             0.9736870931        5.7809556316        1.4880507835
O             1.0883509405        3.5076458280        2.7855500679
O             3.7830666295        6.9619889042        3.1666530661
O             3.5240597256        1.7271715381        3.1666530661
O             1.3473578445        8.7424631940        2.7855500679
O             3.7830666295        6.9619889042        5.7616516349
O             1.0883509405        3.5076458280        0.1905514991
O             1.3473578445        8.7424631940        0.1905514991
O             3.5240597256        1.7271715381        5.7616516349



     Writing output data file ./out/oliv.save/
     NEW-OLD atomic charge density approx. for the potential

     Check: negative core charge=   -0.000006

     negative rho (up, down):  0.000E+00 1.657E-03
     extrapolated charge  215.96937, renormalised to  216.00000
     Generating pointlists ...

     total cpu time spent up to now is    12472.1 secs

     Self-consistent Calculation

     iteration #  1     ecut=    60.00 Ry     beta= 0.30
     Davidson diagonalization with overlap
     ethr =  1.00E-06,  avg # of iterations =  5.0

     Threshold (ethr) on eigenvalues was too large:
     Diagonalizing with lowered threshold

     Davidson diagonalization with overlap
     ethr =  2.49E-08,  avg # of iterations = 11.0

     negative rho (up, down):  0.000E+00 1.655E-03

     total cpu time spent up to now is    12603.0 secs

     total energy              =   -2738.46921194 Ry
     estimated scf accuracy    <       0.00005527 Ry

     total magnetization       =    16.00 Bohr mag/cell
     absolute magnetization    =    16.14 Bohr mag/cell

     iteration #  2     ecut=    60.00 Ry     beta= 0.30
     Davidson diagonalization with overlap
     ethr =  2.56E-08,  avg # of iterations =  4.9

     negative rho (up, down):  0.000E+00 1.656E-03

     total cpu time spent up to now is    12650.1 secs

     total energy              =   -2738.46925742 Ry
     estimated scf accuracy    <       0.00007997 Ry

     total magnetization       =    16.00 Bohr mag/cell
     absolute magnetization    =    16.14 Bohr mag/cell

     iteration #  3     ecut=    60.00 Ry     beta= 0.30
     Davidson diagonalization with overlap
     ethr =  2.56E-08,  avg # of iterations =  2.0

     negative rho (up, down):  0.000E+00 1.656E-03

     total cpu time spent up to now is    12682.2 secs

     total energy              =   -2738.46925633 Ry
     estimated scf accuracy    <       0.00002434 Ry

     total magnetization       =    16.00 Bohr mag/cell
     absolute magnetization    =    16.14 Bohr mag/cell

     iteration #  4     ecut=    60.00 Ry     beta= 0.30
     Davidson diagonalization with overlap
     ethr =  1.13E-08,  avg # of iterations =  2.9

     negative rho (up, down):  0.000E+00 1.657E-03

     total cpu time spent up to now is    12709.2 secs

     total energy              =   -2738.46925626 Ry
     estimated scf accuracy    <       0.00000504 Ry

     total magnetization       =    16.00 Bohr mag/cell
     absolute magnetization    =    16.14 Bohr mag/cell

     iteration #  5     ecut=    60.00 Ry     beta= 0.30
     Davidson diagonalization with overlap
     ethr =  2.33E-09,  avg # of iterations =  6.0

     negative rho (up, down):  0.000E+00 1.657E-03

     total cpu time spent up to now is    12747.1 secs

     total energy              =   -2738.46925857 Ry
     estimated scf accuracy    <       0.00000085 Ry

     total magnetization       =    16.00 Bohr mag/cell
     absolute magnetization    =    16.14 Bohr mag/cell

     iteration #  6     ecut=    60.00 Ry     beta= 0.30
     Davidson diagonalization with overlap
     ethr =  3.92E-10,  avg # of iterations =  8.1

     negative rho (up, down):  0.000E+00 1.656E-03

     total cpu time spent up to now is    12784.5 secs

     total energy              =   -2738.46925875 Ry
     estimated scf accuracy    <       0.00000022 Ry

     total magnetization       =    16.00 Bohr mag/cell
     absolute magnetization    =    16.14 Bohr mag/cell

     iteration #  7     ecut=    60.00 Ry     beta= 0.30
     Davidson diagonalization with overlap
     ethr =  9.96E-11,  avg # of iterations =  5.0

     negative rho (up, down):  0.000E+00 1.657E-03

     total cpu time spent up to now is    12846.0 secs

     total energy              =   -2738.46925872 Ry
     estimated scf accuracy    <       0.00000111 Ry

     total magnetization       =    16.00 Bohr mag/cell
     absolute magnetization    =    16.14 Bohr mag/cell

     iteration #  8     ecut=    60.00 Ry     beta= 0.30
     Davidson diagonalization with overlap
     ethr =  9.96E-11,  avg # of iterations =  3.9

     negative rho (up, down):  0.000E+00 1.657E-03

     total cpu time spent up to now is    12898.2 secs

     total energy              =   -2738.46925886 Ry
     estimated scf accuracy    <       0.00000006 Ry

     total magnetization       =    16.00 Bohr mag/cell
     absolute magnetization    =    16.14 Bohr mag/cell

     iteration #  9     ecut=    60.00 Ry     beta= 0.30
     Davidson diagonalization with overlap
     ethr =  2.93E-11,  avg # of iterations =  5.0

     negative rho (up, down):  0.000E+00 1.657E-03

     total cpu time spent up to now is    12944.3 secs

     total energy              =   -2738.46925889 Ry
     estimated scf accuracy    <       0.00000002 Ry

     total magnetization       =    16.00 Bohr mag/cell
     absolute magnetization    =    16.14 Bohr mag/cell

     iteration # 10     ecut=    60.00 Ry     beta= 0.30
     Davidson diagonalization with overlap
     ethr =  8.69E-12,  avg # of iterations =  4.2

     negative rho (up, down):  0.000E+00 1.657E-03

     total cpu time spent up to now is    12984.4 secs

     total energy              =   -2738.46925890 Ry
     estimated scf accuracy    <          7.7E-09 Ry

     total magnetization       =    16.00 Bohr mag/cell
     absolute magnetization    =    16.14 Bohr mag/cell

     iteration # 11     ecut=    60.00 Ry     beta= 0.30
     Davidson diagonalization with overlap
     ethr =  3.58E-12,  avg # of iterations =  4.0

     negative rho (up, down):  0.000E+00 1.657E-03

     total cpu time spent up to now is    13035.9 secs

     total energy              =   -2738.46925891 Ry
     estimated scf accuracy    <       0.00000001 Ry

     total magnetization       =    16.00 Bohr mag/cell
     absolute magnetization    =    16.14 Bohr mag/cell

     iteration # 12     ecut=    60.00 Ry     beta= 0.30
     Davidson diagonalization with overlap
     ethr =  3.58E-12,  avg # of iterations =  4.2

     negative rho (up, down):  0.000E+00 1.657E-03

     Magnetic moment per site:
     atom:    1    charge:   13.3540    magn:    3.3516    constr:    0.0000
     atom:    2    charge:   13.3540    magn:    3.3516    constr:    0.0000
     atom:    3    charge:   13.3540    magn:    3.3516    constr:    0.0000
     atom:    4    charge:   13.3540    magn:    3.3516    constr:    0.0000
     atom:    5    charge:    8.0829    magn:    0.0010    constr:    0.0000
     atom:    6    charge:    8.0829    magn:    0.0010    constr:    0.0000
     atom:    7    charge:    8.0829    magn:    0.0010    constr:    0.0000
     atom:    8    charge:    8.0829    magn:    0.0010    constr:    0.0000
     atom:    9    charge:    0.3884    magn:    0.0014    constr:    0.0000
     atom:   10    charge:    0.3884    magn:    0.0014    constr:    0.0000
     atom:   11    charge:    0.3884    magn:    0.0014    constr:    0.0000
     atom:   12    charge:    0.3884    magn:    0.0014    constr:    0.0000
     atom:   13    charge:    4.0373    magn:    0.0790    constr:    0.0000
     atom:   14    charge:    4.0373    magn:    0.0790    constr:    0.0000
     atom:   15    charge:    4.0373    magn:    0.0790    constr:    0.0000
     atom:   16    charge:    4.0373    magn:    0.0790    constr:    0.0000
     atom:   17    charge:    4.0318    magn:    0.0835    constr:    0.0000
     atom:   18    charge:    4.0318    magn:    0.0835    constr:    0.0000
     atom:   19    charge:    4.0318    magn:    0.0835    constr:    0.0000
     atom:   20    charge:    4.0318    magn:    0.0835    constr:    0.0000
     atom:   21    charge:    4.0356    magn:    0.0447    constr:    0.0000
     atom:   22    charge:    4.0356    magn:    0.0447    constr:    0.0000
     atom:   23    charge:    4.0356    magn:    0.0447    constr:    0.0000
     atom:   24    charge:    4.0356    magn:    0.0447    constr:    0.0000
     atom:   25    charge:    4.0356    magn:    0.0447    constr:    0.0000
     atom:   26    charge:    4.0356    magn:    0.0447    constr:    0.0000
     atom:   27    charge:    4.0356    magn:    0.0447    constr:    0.0000
     atom:   28    charge:    4.0356    magn:    0.0447    constr:    0.0000

     total cpu time spent up to now is    13075.3 secs

     End of self-consistent calculation

 ------ SPIN UP ------------


          k = 0.0000 0.0000 0.0000 ( 15339 PWs)   bands (ev):

   -80.2178 -80.2178 -80.2154 -80.2153 -65.7883 -65.7883 -65.7882 -65.7882
   -46.7836 -46.7836 -46.7782 -46.7782 -46.1546 -46.1545 -46.1513 -46.1512
   -45.8957 -45.8957 -45.8602 -45.8602 -32.5571 -32.5571 -32.5546 -32.5546
   -32.5343 -32.5343 -32.5340 -32.5340 -32.5168 -32.5167 -32.5132 -32.5132
   -12.1389 -11.9209 -11.6346 -11.4785 -10.5738 -10.5465 -10.4951 -10.4396
   -10.3428 -10.2151 -10.1581 -10.1491 -10.1263 -10.0709  -9.9568  -9.8805
     0.2420   0.3009   0.8351   0.9403   0.9891   0.9987   1.6855   1.8858
     1.9277   2.0211   2.2277   2.3237   2.3536   3.1408   3.1492   3.2935
     3.3708   3.4417   3.4746   3.5464   3.6440   3.7027   3.8124   3.8145
     3.8245   3.8591   4.0275   4.0281   4.2285   4.2359   4.3042   4.3952
     4.5428   4.5562   4.5598   4.8088   4.9184   5.0752   5.1384   5.2059
     5.2174   5.2825   5.4746   5.6650   5.7227   5.7838   5.8067   5.8745
     5.9427   5.9639   6.1752   6.2292   6.2427   6.3708   6.8699   6.8823
     6.9421   7.0213   7.2818   7.3297   7.7478   7.9346   7.9644   7.9751
     7.9963   8.1863   8.2360   8.2758  10.8145  12.6080  13.3819  14.6792
    14.8384  15.4569  15.5727  15.5880  15.5908  15.7793  15.8535  16.0074
    16.1092  16.3568

          k = 0.0000 0.0000-0.3994 ( 15392 PWs)   bands (ev):

   -80.2166 -80.2166 -80.2166 -80.2166 -65.7882 -65.7882 -65.7882 -65.7882
   -46.7809 -46.7809 -46.7809 -46.7809 -46.1529 -46.1529 -46.1529 -46.1529
   -45.8781 -45.8781 -45.8781 -45.8781 -32.5559 -32.5559 -32.5559 -32.5559
   -32.5341 -32.5341 -32.5341 -32.5341 -32.5151 -32.5151 -32.5151 -32.5151
   -11.8355 -11.8355 -11.7482 -11.7482 -10.5373 -10.5373 -10.5054 -10.5054
   -10.3296 -10.3296 -10.1680 -10.1680 -10.0223 -10.0223  -9.9510  -9.9510
     0.5920   0.5920   0.6452   0.6452   1.5165   1.5165   1.6344   1.6344
     2.2191   2.2191   2.5842   2.5842   2.7541   2.7541   3.0905   3.0905
     3.1701   3.1701   3.2944   3.2944   3.5730   3.5730   3.8751   3.8751
     3.9420   3.9420   3.9579   3.9579   4.1320   4.1320   4.2337   4.2337
     4.4862   4.4862   4.7332   4.7332   4.8120   4.8120   4.9974   4.9974
     5.0737   5.0737   5.2286   5.2286   5.6062   5.6062   5.6580   5.6580
     6.1920   6.1920   6.2850   6.2850   6.7001   6.7001   6.7599   6.7599
     7.0843   7.0843   7.1527   7.1527   7.8629   7.8629   7.8765   7.8765
     8.0687   8.0687   8.0723   8.0723  12.7006  12.7006  13.7211  13.7211
    14.5549  14.5549  15.8186  15.8186  15.8304  15.8304  16.7325  16.7325
    16.8420  16.8421

          k =-0.4880 0.0000 0.0000 ( 15374 PWs)   bands (ev):

   -80.2178 -80.2178 -80.2153 -80.2153 -65.7882 -65.7882 -65.7882 -65.7882
   -46.7836 -46.7836 -46.7782 -46.7782 -46.1545 -46.1545 -46.1512 -46.1512
   -45.8957 -45.8957 -45.8602 -45.8602 -32.5559 -32.5559 -32.5559 -32.5559
   -32.5341 -32.5341 -32.5341 -32.5341 -32.5150 -32.5150 -32.5150 -32.5150
   -11.7356 -11.7356 -11.4300 -11.4300 -10.9010 -10.9010 -10.6434 -10.6434
   -10.3470 -10.3470 -10.1105 -10.1105 -10.0216 -10.0216  -9.9982  -9.9982
     0.4654   0.4654   0.5986   0.5986   2.0013   2.0013   2.0086   2.0086
     2.3045   2.3045   2.4278   2.4278   2.5498   2.5498   2.7037   2.7037
     2.9424   2.9424   2.9985   2.9985   3.0498   3.0498   3.6170   3.6170
     4.0403   4.0403   4.2129   4.2129   4.2570   4.2570   4.5153   4.5153
     4.6663   4.6663   4.7331   4.7331   4.8589   4.8589   5.0925   5.0925
     5.2451   5.2451   5.6645   5.6645   5.8485   5.8485   6.0320   6.0320
     6.1629   6.1629   6.3047   6.3047   6.3793   6.3793   6.8893   6.8893
     6.9209   6.9209   7.2828   7.2828   7.5494   7.5494   7.9888   7.9888
     8.1769   8.1769   8.2416   8.2416  13.3562  13.3562  14.0542  14.0542
    14.3115  14.3115  14.8286  14.8286  15.0893  15.0893  15.3450  15.3450
    15.9249  15.9249

          k =-0.4880 0.0000-0.3994 ( 15436 PWs)   bands (ev):

   -80.2166 -80.2166 -80.2166 -80.2166 -65.7882 -65.7882 -65.7882 -65.7882
   -46.7809 -46.7809 -46.7809 -46.7809 -46.1529 -46.1529 -46.1529 -46.1529
   -45.8781 -45.8781 -45.8781 -45.8781 -32.5560 -32.5560 -32.5560 -32.5560
   -32.5341 -32.5341 -32.5341 -32.5341 -32.5150 -32.5150 -32.5150 -32.5150
   -11.5872 -11.5872 -11.5462 -11.5462 -10.7799 -10.7799 -10.7661 -10.7661
   -10.3126 -10.3126 -10.2157 -10.2157 -10.0182 -10.0182  -9.9996  -9.9996
     0.6397   0.6397   0.7195   0.7195   1.9634   1.9634   2.2527   2.2527
     2.3812   2.3812   2.5009   2.5009   2.5801   2.5801   2.7086   2.7086
     3.0552   3.0552   3.0637   3.0637   3.4221   3.4221   3.5097   3.5097
     3.6154   3.6154   3.9198   3.9198   4.4006   4.4006   4.5235   4.5235
     4.6029   4.6029   4.6859   4.6859   4.7299   4.7299   4.8968   4.8968
     5.2374   5.2374   5.3550   5.3550   5.5188   5.5188   5.6770   5.6770
     6.2474   6.2474   6.2862   6.2862   6.7657   6.7657   6.7718   6.7718
     7.0594   7.0594   7.0937   7.0937   7.7799   7.7799   7.8029   7.8029
     8.1049   8.1049   8.1109   8.1109  14.2553  14.2553  14.2731  14.2731
    14.8584  14.8584  14.9172  14.9172  15.2628  15.2628  15.4981  15.4981
    16.3207  16.3207

 ------ SPIN DOWN ----------


          k = 0.0000 0.0000 0.0000 ( 15339 PWs)   bands (ev):

   -76.0860 -76.0858 -76.0832 -76.0832 -65.7875 -65.7875 -65.7874 -65.7874
   -42.3752 -42.3752 -42.3678 -42.3678 -42.1978 -42.1977 -42.1923 -42.1923
   -42.1640 -42.1640 -42.1224 -42.1223 -32.5566 -32.5565 -32.5541 -32.5541
   -32.5333 -32.5332 -32.5329 -32.5329 -32.5156 -32.5156 -32.5121 -32.5120
   -12.0145 -11.7889 -11.5215 -11.3562 -10.4161 -10.3786 -10.3330 -10.2721
   -10.2157 -10.0860 -10.0513 -10.0181  -9.9886  -9.9784  -9.8576  -9.7869
     0.4527   0.4638   0.9392   1.0279   1.1229   1.2229   1.9548   1.9818
     2.0285   2.3604   2.4387   2.5290   2.6231   3.2221   3.2961   3.4709
     3.6854   3.8424   3.9789   4.0372   4.0514   4.1106   4.1506   4.1537
     4.1652   4.2715   4.3910   4.4105   4.5490   4.7047   4.7085   4.7788
     4.9220   5.0153   5.0978   5.2169   5.2513   5.2560   5.2985   5.3863
     5.5914   5.7657   5.8847   5.9041   5.9141   5.9166   6.0483   6.0775
     8.8863   8.9246   9.2051   9.3005   9.6268   9.6643   9.8707   9.9751
    10.0217  10.0879  10.3848  10.3966  11.1295  11.1674  11.2091  11.2437
    11.3272  11.3773  11.3813  11.3963  11.4557  13.1176  13.5134  14.8200
    15.0204  15.7323  15.7958  15.8049  15.8682  15.8974  16.0293  16.2447
    16.2798  16.9120

          k = 0.0000 0.0000-0.3994 ( 15392 PWs)   bands (ev):

   -76.0847 -76.0847 -76.0846 -76.0846 -65.7874 -65.7874 -65.7874 -65.7874
   -42.3714 -42.3714 -42.3714 -42.3714 -42.1947 -42.1947 -42.1947 -42.1947
   -42.1437 -42.1437 -42.1437 -42.1437 -32.5553 -32.5553 -32.5553 -32.5553
   -32.5331 -32.5331 -32.5331 -32.5331 -32.5139 -32.5139 -32.5139 -32.5139
   -11.7114 -11.7114 -11.6232 -11.6232 -10.3738 -10.3738 -10.3417 -10.3417
   -10.2144 -10.2144 -10.0429 -10.0429  -9.9192  -9.9192  -9.8391  -9.8391
     0.7468   0.7468   0.8160   0.8160   1.6879   1.6879   1.7556   1.7556
     2.3977   2.3977   2.7961   2.7961   2.9929   2.9929   3.3150   3.3150
     3.5034   3.5034   3.7356   3.7356   3.9857   3.9857   4.1113   4.1113
     4.2877   4.2877   4.3636   4.3636   4.5905   4.5905   4.6230   4.6230
     5.0083   5.0083   5.0138   5.0138   5.2440   5.2440   5.3113   5.3113
     5.3194   5.3194   5.5906   5.5906   5.9279   5.9279   5.9455   5.9455
     9.3775   9.3775   9.4232   9.4232   9.7083   9.7083   9.7126   9.7126
     9.9961   9.9961  10.0720  10.0720  11.1359  11.1359  11.1608  11.1608
    11.3731  11.3731  11.4044  11.4044  13.0408  13.0408  14.1250  14.1250
    14.7511  14.7511  16.0582  16.0582  16.1559  16.1559  17.0111  17.0111
    17.0990  17.0993

          k =-0.4880 0.0000 0.0000 ( 15374 PWs)   bands (ev):

   -76.0860 -76.0860 -76.0832 -76.0832 -65.7874 -65.7874 -65.7874 -65.7874
   -42.3753 -42.3753 -42.3678 -42.3678 -42.1978 -42.1978 -42.1923 -42.1923
   -42.1641 -42.1641 -42.1224 -42.1224 -32.5554 -32.5554 -32.5554 -32.5554
   -32.5331 -32.5331 -32.5331 -32.5331 -32.5139 -32.5139 -32.5138 -32.5138
   -11.6156 -11.6156 -11.3103 -11.3103 -10.7342 -10.7342 -10.4964 -10.4964
   -10.2017 -10.2017  -9.9705  -9.9705  -9.9231  -9.9231  -9.9053  -9.9053
     0.6171   0.6171   0.6826   0.6826   2.1767   2.1767   2.2292   2.2292
     2.5503   2.5503   2.6380   2.6380   2.8620   2.8620   2.9773   2.9773
     3.1906   3.1906   3.2456   3.2456   3.4090   3.4090   3.8463   3.8463
     4.3692   4.3692   4.6278   4.6278   4.8525   4.8525   4.8895   4.8895
     5.0687   5.0687   5.1663   5.1663   5.3856   5.3856   5.4058   5.4058
     5.6932   5.6932   5.8498   5.8498   6.0051   6.0051   6.3515   6.3515
     8.9506   8.9506   9.2127   9.2127   9.6426   9.6426   9.9444   9.9444
    10.1206  10.1206  10.4327  10.4327  10.9021  10.9021  11.1496  11.1496
    11.4538  11.4538  11.4779  11.4779  13.5920  13.5920  14.2525  14.2525
    14.7214  14.7214  15.0033  15.0033  15.2412  15.2412  15.6522  15.6522
    16.5046  16.5046

          k =-0.4880 0.0000-0.3994 ( 15436 PWs)   bands (ev):

   -76.0847 -76.0847 -76.0847 -76.0847 -65.7875 -65.7875 -65.7874 -65.7874
   -42.3715 -42.3715 -42.3714 -42.3714 -42.1947 -42.1947 -42.1947 -42.1947
   -42.1437 -42.1437 -42.1437 -42.1437 -32.5554 -32.5554 -32.5554 -32.5554
   -32.5331 -32.5331 -32.5331 -32.5331 -32.5139 -32.5139 -32.5138 -32.5138
   -11.4660 -11.4660 -11.4233 -11.4233 -10.6211 -10.6211 -10.6136 -10.6136
   -10.1755 -10.1755 -10.0895 -10.0895  -9.9093  -9.9093  -9.8973  -9.8973
     0.7601   0.7601   0.8533   0.8533   2.2787   2.2787   2.5111   2.5111
     2.6399   2.6399   2.7383   2.7383   2.7631   2.7631   2.9487   2.9487
     3.2553   3.2553   3.2752   3.2752   3.6575   3.6575   3.7229   3.7229
     3.8908   3.8908   4.2992   4.2992   4.7842   4.7842   4.8314   4.8314
     4.9533   4.9533   5.3181   5.3181   5.3609   5.3609   5.4429   5.4429
     5.6098   5.6098   5.6938   5.6938   5.8943   5.8943   5.9331   5.9331
     9.3551   9.3551   9.3762   9.3762   9.7663   9.7663   9.7768   9.7768
    10.0346  10.0346  10.0494  10.0494  11.0049  11.0049  11.0144  11.0144
    11.2958  11.2958  11.2980  11.2980  14.6106  14.6106  14.6622  14.6622
    15.2165  15.2165  15.2460  15.2460  15.5164  15.5164  15.8567  15.8567
    16.5202  16.5202

     the Fermi energy is     9.5275 ev

!    total energy              =   -2738.46925892 Ry

     total all-electron energy =    -16515.670169 Ry
     estimated scf accuracy    <          1.5E-09 Ry
     smearing contrib. (-TS)   =      -0.00388650 Ry
     internal energy E=F+TS    =   -2738.46537241 Ry

     The total energy is F=E-TS. E is the sum of the following terms:
     one-electron contribution =   -1243.85115457 Ry
     hartree contribution      =     722.56195424 Ry
     xc contribution           =    -328.22836023 Ry
     ewald contribution        =   -1202.46476447 Ry
     one-center paw contrib.   =    -686.48304738 Ry

     total magnetization       =    16.00 Bohr mag/cell
     absolute magnetization    =    16.14 Bohr mag/cell

     convergence has been achieved in  12 iterations

     negative rho (up, down):  0.000E+00 1.657E-03

     Forces acting on atoms (cartesian axes, Ry/au):

     atom    1 type  1   force =     0.00000000    0.00000000    0.00000000
     atom    2 type  1   force =     0.00000000    0.00000000    0.00000000
     atom    3 type  1   force =     0.00000000    0.00000000    0.00000000
     atom    4 type  1   force =     0.00000000    0.00000000    0.00000000
     atom    5 type  2   force =     0.00019226    0.00052823    0.00000000
     atom    6 type  2   force =    -0.00019226   -0.00052823    0.00000000
     atom    7 type  2   force =     0.00019226   -0.00052823    0.00000000
     atom    8 type  2   force =    -0.00019226    0.00052823    0.00000000
     atom    9 type  3   force =    -0.00047593   -0.00044630   -0.00000000
     atom   10 type  3   force =     0.00047593    0.00044630   -0.00000000
     atom   11 type  3   force =    -0.00047593    0.00044630    0.00000000
     atom   12 type  3   force =     0.00047593   -0.00044630    0.00000000
     atom   13 type  4   force =    -0.00003460   -0.00020756    0.00000000
     atom   14 type  4   force =     0.00003460    0.00020756    0.00000000
     atom   15 type  4   force =    -0.00003460    0.00020756    0.00000000
     atom   16 type  4   force =     0.00003460   -0.00020756    0.00000000
     atom   17 type  4   force =    -0.00033094   -0.00040385    0.00000000
     atom   18 type  4   force =     0.00033094    0.00040385    0.00000000
     atom   19 type  4   force =    -0.00033094    0.00040385    0.00000000
     atom   20 type  4   force =     0.00033094   -0.00040385    0.00000000
     atom   21 type  4   force =    -0.00041140   -0.00022468   -0.00014357
     atom   22 type  4   force =     0.00041140    0.00022468    0.00014357
     atom   23 type  4   force =    -0.00041140    0.00022468    0.00014357
     atom   24 type  4   force =     0.00041140   -0.00022468   -0.00014357
     atom   25 type  4   force =     0.00041140    0.00022468   -0.00014357
     atom   26 type  4   force =    -0.00041140   -0.00022468    0.00014357
     atom   27 type  4   force =     0.00041140   -0.00022468    0.00014357
     atom   28 type  4   force =    -0.00041140    0.00022468   -0.00014357

     Total force =     0.002481     Total SCF correction =     0.000093


     Computing stress (Cartesian axis) and pressure


     negative rho (up, down):  0.000E+00 1.657E-03
          total   stress  (Ry/bohr**3)                   (kbar)     P=        0.14
   0.00000573   0.00000000   0.00000000            0.84        0.00        0.00
   0.00000000  -0.00000316   0.00000000            0.00       -0.46        0.00
   0.00000000   0.00000000   0.00000021            0.00        0.00        0.03

     Energy error            =      2.2E-05
     Gradient error          =      5.3E-04
     Cell gradient error     =      5.7E-06


     number of scf cycles    =  15
     number of bfgs steps    =  14

     enthalpy old            =   -2738.4692366591 Ry
     enthalpy new            =   -2738.4692589154 Ry

     CASE: enthalpy_new < enthalpy_old

     new trust radius        =       0.0021174274 bohr
     new conv_thr            =       0.0000000022 Ry

     new unit-cell volume =   2048.72659 a.u.^3 (   303.58996 Ang^3 )
     density =      3.76819 g/cm^3

CELL_PARAMETERS (angstrom)
   4.872272703   0.000000000   0.000000000
   0.000000000  10.469698454   0.000000000
   0.000000000   0.000000000   5.951434281

ATOMIC_POSITIONS (angstrom)
Fe            0.0000000000        0.0000000000       -0.0000000000
Fe            2.4361363514        5.2348492270        0.0000000000
Fe           -0.0000000000       -0.0000000000        2.9757171404
Fe            2.4361363514        5.2348492270        2.9757171404
Mg            0.0547167440        2.8938968072        4.4635757106
Mg            4.8175559587        7.5758016467        1.4878585702
Mg            2.4908530953        2.3409524197        1.4878585702
Mg            2.3814196074        8.1287460342        4.4635757106
Si            0.3599583931        4.2279552497        1.4878585702
Si            4.5123143096        6.2417432042        4.4635757106
Si            2.7960947445        1.0068939772        4.4635757106
Si            2.0761779582        9.4628044767        1.4878585702
O             1.1551645665        1.0408914093        4.4635757106
O             3.7171081362        9.4288070446        1.4878585702
O             3.5913009179        4.1939578177        1.4878585702
O             1.2809717849        6.2757406362        4.4635757106
O             1.4622396363        0.5457138471        1.4878585702
O             3.4100330664        9.9239846068        4.4635757106
O             3.8983759877        4.6891353799        4.4635757106
O             0.9738967151        5.7805630740        1.4878585702
O             1.0879937020        3.5069874615        2.7851225570
O             3.7842790007        6.9627109924        3.1663117239
O             3.5241300534        1.7278617654        3.1663117239
O             1.3481426494        8.7418366885        2.7851225570
O             3.7842790007        6.9627109924        5.7608396974
O             1.0879937020        3.5069874615        0.1905945834
O             1.3481426494        8.7418366885        0.1905945834
O             3.5241300534        1.7278617654        5.7608396974



     Writing output data file ./out/oliv.save/
     NEW-OLD atomic charge density approx. for the potential

     Check: negative core charge=   -0.000006

     negative rho (up, down):  0.000E+00 1.657E-03
     extrapolated charge  216.01132, renormalised to  216.00000
     Generating pointlists ...

     total cpu time spent up to now is    13110.4 secs

     Self-consistent Calculation

     iteration #  1     ecut=    60.00 Ry     beta= 0.30
     Davidson diagonalization with overlap
     ethr =  1.00E-06,  avg # of iterations =  3.6

     Threshold (ethr) on eigenvalues was too large:
     Diagonalizing with lowered threshold

     Davidson diagonalization with overlap
     ethr =  8.41E-09,  avg # of iterations = 13.0

     negative rho (up, down):  0.000E+00 1.658E-03

     total cpu time spent up to now is    13234.2 secs

     total energy              =   -2738.46925975 Ry
     estimated scf accuracy    <       0.00001934 Ry

     total magnetization       =    16.00 Bohr mag/cell
     absolute magnetization    =    16.14 Bohr mag/cell

     iteration #  2     ecut=    60.00 Ry     beta= 0.30
     Davidson diagonalization with overlap
     ethr =  8.95E-09,  avg # of iterations =  4.5

     negative rho (up, down):  0.000E+00 1.657E-03

     total cpu time spent up to now is    13278.2 secs

     total energy              =   -2738.46926964 Ry
     estimated scf accuracy    <       0.00001463 Ry

     total magnetization       =    16.00 Bohr mag/cell
     absolute magnetization    =    16.14 Bohr mag/cell

     iteration #  3     ecut=    60.00 Ry     beta= 0.30
     Davidson diagonalization with overlap
     ethr =  6.78E-09,  avg # of iterations =  2.0

     negative rho (up, down):  0.000E+00 1.657E-03

     total cpu time spent up to now is    13314.5 secs

     total energy              =   -2738.46926996 Ry
     estimated scf accuracy    <       0.00000284 Ry

     total magnetization       =    16.00 Bohr mag/cell
     absolute magnetization    =    16.14 Bohr mag/cell

     iteration #  4     ecut=    60.00 Ry     beta= 0.30
     Davidson diagonalization with overlap
     ethr =  1.32E-09,  avg # of iterations =  6.1

     negative rho (up, down):  0.000E+00 1.657E-03

     total cpu time spent up to now is    13359.9 secs

     total energy              =   -2738.46927065 Ry
     estimated scf accuracy    <       0.00000029 Ry

     total magnetization       =    16.00 Bohr mag/cell
     absolute magnetization    =    16.14 Bohr mag/cell

     iteration #  5     ecut=    60.00 Ry     beta= 0.30
     Davidson diagonalization with overlap
     ethr =  1.34E-10,  avg # of iterations =  6.4

     negative rho (up, down):  0.000E+00 1.657E-03

     total cpu time spent up to now is    13416.2 secs

     total energy              =   -2738.46927082 Ry
     estimated scf accuracy    <       0.00000005 Ry

     total magnetization       =    16.00 Bohr mag/cell
     absolute magnetization    =    16.14 Bohr mag/cell

     iteration #  6     ecut=    60.00 Ry     beta= 0.30
     Davidson diagonalization with overlap
     ethr =  2.43E-11,  avg # of iterations =  8.6

     negative rho (up, down):  0.000E+00 1.657E-03

     total cpu time spent up to now is    13462.7 secs

     total energy              =   -2738.46927086 Ry
     estimated scf accuracy    <       0.00000003 Ry

     total magnetization       =    16.00 Bohr mag/cell
     absolute magnetization    =    16.14 Bohr mag/cell

     iteration #  7     ecut=    60.00 Ry     beta= 0.30
     Davidson diagonalization with overlap
     ethr =  1.43E-11,  avg # of iterations =  2.5

     negative rho (up, down):  0.000E+00 1.657E-03

     total cpu time spent up to now is    13492.6 secs

     total energy              =   -2738.46927087 Ry
     estimated scf accuracy    <          9.5E-09 Ry

     total magnetization       =    16.00 Bohr mag/cell
     absolute magnetization    =    16.14 Bohr mag/cell

     iteration #  8     ecut=    60.00 Ry     beta= 0.30
     Davidson diagonalization with overlap
     ethr =  4.42E-12,  avg # of iterations =  6.2

     negative rho (up, down):  0.000E+00 1.657E-03

     total cpu time spent up to now is    13525.4 secs

     total energy              =   -2738.46927088 Ry
     estimated scf accuracy    <          6.3E-09 Ry

     total magnetization       =    16.00 Bohr mag/cell
     absolute magnetization    =    16.14 Bohr mag/cell

     iteration #  9     ecut=    60.00 Ry     beta= 0.30
     Davidson diagonalization with overlap
     ethr =  2.91E-12,  avg # of iterations =  4.5

     negative rho (up, down):  0.000E+00 1.657E-03

     total cpu time spent up to now is    13566.9 secs

     total energy              =   -2738.46927088 Ry
     estimated scf accuracy    <          7.5E-09 Ry

     total magnetization       =    16.00 Bohr mag/cell
     absolute magnetization    =    16.14 Bohr mag/cell

     iteration # 10     ecut=    60.00 Ry     beta= 0.30
     Davidson diagonalization with overlap
     ethr =  2.91E-12,  avg # of iterations =  2.0

     negative rho (up, down):  0.000E+00 1.657E-03

     total cpu time spent up to now is    13603.8 secs

     total energy              =   -2738.46927088 Ry
     estimated scf accuracy    <          2.7E-09 Ry

     total magnetization       =    16.00 Bohr mag/cell
     absolute magnetization    =    16.14 Bohr mag/cell

     iteration # 11     ecut=    60.00 Ry     beta= 0.30
     Davidson diagonalization with overlap
     ethr =  1.27E-12,  avg # of iterations =  4.2

     negative rho (up, down):  0.000E+00 1.657E-03

     Magnetic moment per site:
     atom:    1    charge:   13.3538    magn:    3.3517    constr:    0.0000
     atom:    2    charge:   13.3538    magn:    3.3517    constr:    0.0000
     atom:    3    charge:   13.3538    magn:    3.3517    constr:    0.0000
     atom:    4    charge:   13.3538    magn:    3.3517    constr:    0.0000
     atom:    5    charge:    8.0830    magn:    0.0010    constr:    0.0000
     atom:    6    charge:    8.0830    magn:    0.0010    constr:    0.0000
     atom:    7    charge:    8.0830    magn:    0.0010    constr:    0.0000
     atom:    8    charge:    8.0830    magn:    0.0010    constr:    0.0000
     atom:    9    charge:    0.3884    magn:    0.0014    constr:    0.0000
     atom:   10    charge:    0.3884    magn:    0.0014    constr:    0.0000
     atom:   11    charge:    0.3884    magn:    0.0014    constr:    0.0000
     atom:   12    charge:    0.3884    magn:    0.0014    constr:    0.0000
     atom:   13    charge:    4.0373    magn:    0.0790    constr:    0.0000
     atom:   14    charge:    4.0373    magn:    0.0790    constr:    0.0000
     atom:   15    charge:    4.0373    magn:    0.0790    constr:    0.0000
     atom:   16    charge:    4.0373    magn:    0.0790    constr:    0.0000
     atom:   17    charge:    4.0318    magn:    0.0834    constr:    0.0000
     atom:   18    charge:    4.0318    magn:    0.0834    constr:    0.0000
     atom:   19    charge:    4.0318    magn:    0.0834    constr:    0.0000
     atom:   20    charge:    4.0318    magn:    0.0834    constr:    0.0000
     atom:   21    charge:    4.0357    magn:    0.0447    constr:    0.0000
     atom:   22    charge:    4.0357    magn:    0.0447    constr:    0.0000
     atom:   23    charge:    4.0357    magn:    0.0447    constr:    0.0000
     atom:   24    charge:    4.0357    magn:    0.0447    constr:    0.0000
     atom:   25    charge:    4.0357    magn:    0.0447    constr:    0.0000
     atom:   26    charge:    4.0357    magn:    0.0447    constr:    0.0000
     atom:   27    charge:    4.0357    magn:    0.0447    constr:    0.0000
     atom:   28    charge:    4.0357    magn:    0.0447    constr:    0.0000

     total cpu time spent up to now is    13647.3 secs

     End of self-consistent calculation

 ------ SPIN UP ------------


          k = 0.0000 0.0000 0.0000 ( 15339 PWs)   bands (ev):

   -80.2207 -80.2207 -80.2182 -80.2182 -65.7872 -65.7872 -65.7871 -65.7871
   -46.7861 -46.7861 -46.7808 -46.7808 -46.1578 -46.1578 -46.1545 -46.1544
   -45.8984 -45.8984 -45.8629 -45.8629 -32.5560 -32.5560 -32.5535 -32.5535
   -32.5334 -32.5333 -32.5330 -32.5330 -32.5157 -32.5156 -32.5121 -32.5120
   -12.1389 -11.9209 -11.6346 -11.4784 -10.5746 -10.5478 -10.4956 -10.4401
   -10.3429 -10.2156 -10.1590 -10.1482 -10.1271 -10.0702  -9.9557  -9.8796
     0.2419   0.3005   0.8348   0.9398   0.9892   0.9990   1.6844   1.8855
     1.9280   2.0204   2.2279   2.3225   2.3528   3.1398   3.1491   3.2936
     3.3699   3.4411   3.4734   3.5451   3.6450   3.7011   3.8124   3.8132
     3.8233   3.8587   4.0278   4.0286   4.2284   4.2379   4.3037   4.3950
     4.5434   4.5561   4.5598   4.8077   4.9189   5.0731   5.1386   5.2067
     5.2180   5.2835   5.4735   5.6661   5.7226   5.7840   5.8077   5.8740
     5.9401   5.9613   6.1722   6.2263   6.2397   6.3681   6.8672   6.8797
     6.9391   7.0180   7.2796   7.3277   7.7437   7.9326   7.9600   7.9728
     7.9931   8.1817   8.2334   8.2724  10.8126  12.6043  13.3816  14.6759
    14.8342  15.4538  15.5694  15.5878  15.5896  15.7801  15.8560  16.0080
    16.1089  16.3534

          k = 0.0000 0.0000-0.3994 ( 15392 PWs)   bands (ev):

   -80.2195 -80.2195 -80.2195 -80.2195 -65.7872 -65.7872 -65.7872 -65.7872
   -46.7835 -46.7835 -46.7834 -46.7834 -46.1561 -46.1561 -46.1561 -46.1561
   -45.8808 -45.8808 -45.8808 -45.8808 -32.5548 -32.5548 -32.5548 -32.5548
   -32.5332 -32.5332 -32.5332 -32.5332 -32.5140 -32.5140 -32.5139 -32.5139
   -11.8355 -11.8355 -11.7481 -11.7481 -10.5382 -10.5382 -10.5060 -10.5060
   -10.3296 -10.3296 -10.1685 -10.1685 -10.0217 -10.0217  -9.9506  -9.9506
     0.5917   0.5917   0.6452   0.6452   1.5165   1.5165   1.6343   1.6343
     2.2192   2.2192   2.5840   2.5840   2.7536   2.7536   3.0900   3.0900
     3.1694   3.1694   3.2930   3.2930   3.5717   3.5717   3.8756   3.8756
     3.9419   3.9419   3.9580   3.9580   4.1315   4.1315   4.2329   4.2329
     4.4868   4.4868   4.7338   4.7338   4.8111   4.8111   4.9971   4.9971
     5.0740   5.0740   5.2288   5.2288   5.6062   5.6062   5.6575   5.6575
     6.1891   6.1891   6.2821   6.2821   6.6978   6.6978   6.7574   6.7574
     7.0817   7.0817   7.1500   7.1500   7.8605   7.8605   7.8742   7.8742
     8.0643   8.0643   8.0680   8.0680  12.6986  12.6986  13.7180  13.7180
    14.5547  14.5547  15.8156  15.8156  15.8268  15.8268  16.7310  16.7311
    16.8411  16.8411

          k =-0.4879 0.0000 0.0000 ( 15374 PWs)   bands (ev):

   -80.2207 -80.2207 -80.2182 -80.2182 -65.7872 -65.7872 -65.7872 -65.7872
   -46.7861 -46.7861 -46.7808 -46.7808 -46.1578 -46.1578 -46.1545 -46.1545
   -45.8985 -45.8985 -45.8629 -45.8629 -32.5549 -32.5549 -32.5548 -32.5548
   -32.5332 -32.5332 -32.5331 -32.5331 -32.5139 -32.5139 -32.5139 -32.5139
   -11.7361 -11.7361 -11.4302 -11.4302 -10.9012 -10.9012 -10.6432 -10.6432
   -10.3477 -10.3477 -10.1115 -10.1115 -10.0206 -10.0206  -9.9974  -9.9974
     0.4653   0.4653   0.5985   0.5985   2.0012   2.0012   2.0079   2.0079
     2.3039   2.3039   2.4270   2.4270   2.5497   2.5497   2.7030   2.7030
     2.9411   2.9411   2.9982   2.9982   3.0498   3.0498   3.6167   3.6167
     4.0395   4.0395   4.2137   4.2137   4.2570   4.2570   4.5146   4.5146
     4.6665   4.6665   4.7329   4.7329   4.8589   4.8589   5.0921   5.0921
     5.2459   5.2459   5.6636   5.6636   5.8483   5.8483   6.0297   6.0297
     6.1630   6.1630   6.3022   6.3022   6.3766   6.3766   6.8860   6.8860
     6.9184   6.9184   7.2807   7.2807   7.5455   7.5455   7.9867   7.9867
     8.1745   8.1745   8.2369   8.2369  13.3544  13.3544  14.0522  14.0522
    14.3075  14.3075  14.8270  14.8270  15.0911  15.0911  15.3446  15.3446
    15.9210  15.9210

          k =-0.4879 0.0000-0.3994 ( 15436 PWs)   bands (ev):

   -80.2195 -80.2195 -80.2195 -80.2195 -65.7872 -65.7872 -65.7872 -65.7872
   -46.7835 -46.7835 -46.7835 -46.7835 -46.1561 -46.1561 -46.1561 -46.1561
   -45.8808 -45.8808 -45.8808 -45.8808 -32.5549 -32.5549 -32.5549 -32.5549
   -32.5332 -32.5332 -32.5332 -32.5332 -32.5139 -32.5139 -32.5139 -32.5139
   -11.5876 -11.5876 -11.5466 -11.5466 -10.7799 -10.7799 -10.7659 -10.7659
   -10.3134 -10.3134 -10.2161 -10.2161 -10.0178 -10.0178  -9.9989  -9.9989
     0.6394   0.6394   0.7196   0.7196   1.9630   1.9630   2.2520   2.2520
     2.3798   2.3798   2.5000   2.5000   2.5804   2.5804   2.7083   2.7083
     3.0550   3.0550   3.0642   3.0642   3.4227   3.4227   3.5098   3.5098
     3.6155   3.6155   3.9194   3.9194   4.4005   4.4005   4.5228   4.5228
     4.6021   4.6021   4.6856   4.6856   4.7292   4.7292   4.8964   4.8964
     5.2370   5.2370   5.3552   5.3552   5.5188   5.5188   5.6772   5.6772
     6.2444   6.2444   6.2832   6.2832   6.7636   6.7636   6.7697   6.7697
     7.0563   7.0563   7.0907   7.0907   7.7772   7.7772   7.8003   7.8003
     8.1009   8.1009   8.1071   8.1071  14.2529  14.2529  14.2699  14.2699
    14.8552  14.8552  14.9144  14.9144  15.2633  15.2633  15.4967  15.4967
    16.3199  16.3199

 ------ SPIN DOWN ----------


          k = 0.0000 0.0000 0.0000 ( 15339 PWs)   bands (ev):

   -76.0888 -76.0886 -76.0860 -76.0859 -65.7864 -65.7864 -65.7863 -65.7863
   -42.3777 -42.3777 -42.3703 -42.3703 -42.2009 -42.2008 -42.1953 -42.1953
   -42.1666 -42.1666 -42.1249 -42.1249 -32.5555 -32.5555 -32.5530 -32.5530
   -32.5323 -32.5323 -32.5320 -32.5320 -32.5145 -32.5145 -32.5110 -32.5109
   -12.0145 -11.7888 -11.5215 -11.3561 -10.4168 -10.3799 -10.3335 -10.2726
   -10.2159 -10.0867 -10.0504 -10.0191  -9.9895  -9.9778  -9.8566  -9.7861
     0.4527   0.4633   0.9388   1.0273   1.1230   1.2234   1.9546   1.9807
     2.0289   2.3599   2.4378   2.5294   2.6221   3.2211   3.2960   3.4701
     3.6841   3.8426   3.9777   4.0382   4.0508   4.1091   4.1511   4.1525
     4.1653   4.2696   4.3902   4.4103   4.5483   4.7064   4.7091   4.7794
     4.9221   5.0142   5.0982   5.2148   5.2516   5.2570   5.2990   5.3871
     5.5903   5.7667   5.8849   5.9042   5.9145   5.9173   6.0479   6.0780
     8.8827   8.9211   9.2029   9.2982   9.6245   9.6619   9.8682   9.9726
    10.0191  10.0852  10.3824  10.3944  11.1264  11.1660  11.2062  11.2399
    11.3231  11.3749  11.3783  11.3924  11.4514  13.1137  13.5133  14.8167
    15.0160  15.7294  15.7945  15.8020  15.8683  15.8981  16.0328  16.2445
    16.2798  16.9138

          k = 0.0000 0.0000-0.3994 ( 15392 PWs)   bands (ev):

   -76.0874 -76.0874 -76.0874 -76.0874 -65.7864 -65.7864 -65.7864 -65.7864
   -42.3740 -42.3740 -42.3740 -42.3740 -42.1978 -42.1978 -42.1978 -42.1978
   -42.1463 -42.1463 -42.1463 -42.1463 -32.5543 -32.5543 -32.5542 -32.5542
   -32.5321 -32.5321 -32.5321 -32.5321 -32.5128 -32.5128 -32.5128 -32.5128
   -11.7114 -11.7114 -11.6231 -11.6231 -10.3748 -10.3748 -10.3423 -10.3423
   -10.2144 -10.2144 -10.0434 -10.0434  -9.9187  -9.9187  -9.8388  -9.8388
     0.7464   0.7464   0.8159   0.8159   1.6880   1.6880   1.7555   1.7555
     2.3977   2.3977   2.7960   2.7960   2.9925   2.9925   3.3146   3.3146
     3.5026   3.5026   3.7341   3.7341   3.9848   3.9848   4.1117   4.1117
     4.2874   4.2874   4.3635   4.3635   4.5896   4.5896   4.6227   4.6227
     5.0079   5.0079   5.0136   5.0136   5.2446   5.2446   5.3115   5.3115
     5.3202   5.3202   5.5905   5.5905   5.9277   5.9277   5.9454   5.9454
     9.3746   9.3746   9.4201   9.4201   9.7059   9.7059   9.7102   9.7102
     9.9936   9.9936  10.0695  10.0695  11.1333  11.1333  11.1580  11.1580
    11.3688  11.3688  11.4001  11.4001  13.0394  13.0394  14.1221  14.1221
    14.7510  14.7510  16.0559  16.0559  16.1524  16.1524  17.0090  17.0090
    17.0980  17.0982

          k =-0.4879 0.0000 0.0000 ( 15374 PWs)   bands (ev):

   -76.0888 -76.0888 -76.0860 -76.0860 -65.7864 -65.7864 -65.7864 -65.7864
   -42.3778 -42.3778 -42.3703 -42.3703 -42.2009 -42.2009 -42.1953 -42.1953
   -42.1666 -42.1666 -42.1249 -42.1249 -32.5543 -32.5543 -32.5543 -32.5543
   -32.5321 -32.5321 -32.5321 -32.5321 -32.5128 -32.5128 -32.5127 -32.5127
   -11.6161 -11.6161 -11.3105 -11.3105 -10.7343 -10.7343 -10.4963 -10.4963
   -10.2026 -10.2026  -9.9717  -9.9717  -9.9222  -9.9222  -9.9045  -9.9045
     0.6169   0.6169   0.6826   0.6826   2.1766   2.1766   2.2287   2.2287
     2.5498   2.5498   2.6370   2.6370   2.8620   2.8620   2.9760   2.9760
     3.1893   3.1893   3.2457   3.2457   3.4091   3.4091   3.8460   3.8460
     4.3683   4.3683   4.6287   4.6287   4.8521   4.8521   4.8893   4.8893
     5.0679   5.0679   5.1672   5.1672   5.3858   5.3858   5.4057   5.4057
     5.6943   5.6943   5.8489   5.8489   6.0049   6.0049   6.3518   6.3518
     8.9468   8.9468   9.2106   9.2106   9.6402   9.6402   9.9419   9.9419
    10.1181  10.1181  10.4306  10.4306  10.8984  10.8984  11.1471  11.1471
    11.4511  11.4511  11.4730  11.4730  13.5907  13.5907  14.2503  14.2503
    14.7184  14.7184  15.0018  15.0018  15.2430  15.2430  15.6506  15.6506
    16.5034  16.5034

          k =-0.4879 0.0000-0.3994 ( 15436 PWs)   bands (ev):

   -76.0875 -76.0875 -76.0875 -76.0875 -65.7864 -65.7864 -65.7864 -65.7864
   -42.3740 -42.3740 -42.3740 -42.3740 -42.1978 -42.1978 -42.1978 -42.1978
   -42.1463 -42.1463 -42.1463 -42.1463 -32.5544 -32.5544 -32.5543 -32.5543
   -32.5321 -32.5321 -32.5321 -32.5321 -32.5128 -32.5128 -32.5127 -32.5127
   -11.4664 -11.4664 -11.4237 -11.4237 -10.6210 -10.6210 -10.6134 -10.6134
   -10.1765 -10.1765 -10.0898 -10.0898  -9.9092  -9.9092  -9.8968  -9.8968
     0.7598   0.7598   0.8534   0.8534   2.2784   2.2784   2.5105   2.5105
     2.6387   2.6387   2.7386   2.7386   2.7626   2.7626   2.9477   2.9477
     3.2550   3.2550   3.2753   3.2753   3.6578   3.6578   3.7230   3.7230
     3.8913   3.8913   4.2992   4.2992   4.7834   4.7834   4.8309   4.8309
     4.9530   4.9530   5.3182   5.3182   5.3606   5.3606   5.4428   5.4428
     5.6094   5.6094   5.6942   5.6942   5.8939   5.8939   5.9330   5.9330
     9.3523   9.3523   9.3732   9.3732   9.7638   9.7638   9.7744   9.7744
    10.0321  10.0321  10.0469  10.0469  11.0022  11.0022  11.0117  11.0117
    11.2915  11.2915  11.2938  11.2938  14.6091  14.6091  14.6602  14.6602
    15.2129  15.2129  15.2436  15.2436  15.5160  15.5160  15.8554  15.8554
    16.5195  16.5196

     the Fermi energy is     9.5248 ev

!    total energy              =   -2738.46927089 Ry

     total all-electron energy =    -16515.670181 Ry
     estimated scf accuracy    <          5.4E-10 Ry
     smearing contrib. (-TS)   =      -0.00387032 Ry
     internal energy E=F+TS    =   -2738.46540057 Ry

     The total energy is F=E-TS. E is the sum of the following terms:
     one-electron contribution =   -1243.73422763 Ry
     hartree contribution      =     722.49696400 Ry
     xc contribution           =    -328.22715277 Ry
     ewald contribution        =   -1202.51790857 Ry
     one-center paw contrib.   =    -686.48307559 Ry

     total magnetization       =    16.00 Bohr mag/cell
     absolute magnetization    =    16.14 Bohr mag/cell

     convergence has been achieved in  11 iterations

     negative rho (up, down):  0.000E+00 1.657E-03

     Forces acting on atoms (cartesian axes, Ry/au):

     atom    1 type  1   force =     0.00000000    0.00000000    0.00000000
     atom    2 type  1   force =     0.00000000    0.00000000    0.00000000
     atom    3 type  1   force =     0.00000000    0.00000000    0.00000000
     atom    4 type  1   force =    -0.00000000    0.00000000    0.00000000
     atom    5 type  2   force =     0.00005155    0.00016829    0.00000000
     atom    6 type  2   force =    -0.00005155   -0.00016829    0.00000000
     atom    7 type  2   force =     0.00005155   -0.00016829   -0.00000000
     atom    8 type  2   force =    -0.00005155    0.00016829    0.00000000
     atom    9 type  3   force =    -0.00033570   -0.00051334    0.00000000
     atom   10 type  3   force =     0.00033570    0.00051334    0.00000000
     atom   11 type  3   force =    -0.00033570    0.00051334    0.00000000
     atom   12 type  3   force =     0.00033570   -0.00051334    0.00000000
     atom   13 type  4   force =    -0.00011797   -0.00034084   -0.00000000
     atom   14 type  4   force =     0.00011797    0.00034084    0.00000000
     atom   15 type  4   force =    -0.00011797    0.00034084   -0.00000000
     atom   16 type  4   force =     0.00011797   -0.00034084   -0.00000000
     atom   17 type  4   force =    -0.00031045   -0.00056753    0.00000000
     atom   18 type  4   force =     0.00031045    0.00056753   -0.00000000
     atom   19 type  4   force =    -0.00031045    0.00056753   -0.00000000
     atom   20 type  4   force =     0.00031045   -0.00056753    0.00000000
     atom   21 type  4   force =    -0.00026701   -0.00001628   -0.00009143
     atom   22 type  4   force =     0.00026701    0.00001628    0.00009143
     atom   23 type  4   force =    -0.00026701    0.00001628    0.00009143
     atom   24 type  4   force =     0.00026701   -0.00001628   -0.00009143
     atom   25 type  4   force =     0.00026701    0.00001628   -0.00009143
     atom   26 type  4   force =    -0.00026701   -0.00001628    0.00009143
     atom   27 type  4   force =     0.00026701   -0.00001628    0.00009143
     atom   28 type  4   force =    -0.00026701    0.00001628   -0.00009143

     Total force =     0.002112     Total SCF correction =     0.000036


     Computing stress (Cartesian axis) and pressure


     negative rho (up, down):  0.000E+00 1.657E-03
          total   stress  (Ry/bohr**3)                   (kbar)     P=        0.00
   0.00000268   0.00000000   0.00000000            0.39        0.00        0.00
   0.00000000  -0.00000467   0.00000000            0.00       -0.69        0.00
   0.00000000   0.00000000   0.00000199            0.00        0.00        0.29

     Energy error            =      1.2E-05
     Gradient error          =      5.7E-04
     Cell gradient error     =      4.7E-06


     number of scf cycles    =  16
     number of bfgs steps    =  15

     enthalpy old            =   -2738.4692589154 Ry
     enthalpy new            =   -2738.4692708874 Ry

     CASE: enthalpy_new < enthalpy_old

     new trust radius        =       0.0023291855 bohr
     new conv_thr            =       0.0000000012 Ry

     new unit-cell volume =   2048.88701 a.u.^3 (   303.61373 Ang^3 )
     density =      3.76790 g/cm^3

CELL_PARAMETERS (angstrom)
   4.873312414   0.000000000   0.000000000
   0.000000000  10.468223819   0.000000000
   0.000000000   0.000000000   5.951468703

ATOMIC_POSITIONS (angstrom)
Fe            0.0000000000        0.0000000000       -0.0000000000
Fe            2.4366562069        5.2341119096        0.0000000000
Fe           -0.0000000000       -0.0000000000        2.9757343517
Fe            2.4366562069        5.2341119096        2.9757343517
Mg            0.0548028857        2.8947193361        4.4636015276
Mg            4.8185095282        7.5735044831        1.4878671759
Mg            2.4914590926        2.3393925735        1.4878671759
Mg            2.3818533213        8.1288312457        4.4636015276
Si            0.3594671035        4.2267107331        1.4878671759
Si            4.5138453104        6.2415130861        4.4636015276
Si            2.7961233105        1.0074011765        4.4636015276
Si            2.0771891034        9.4608226427        1.4878671759
O             1.1552195469        1.0406092241        4.4636015276
O             3.7180928670        9.4276145951        1.4878671759
O             3.5918757539        4.1935026855        1.4878671759
O             1.2814366600        6.2747211337        4.4636015276
O             1.4622215796        0.5448727664        1.4878671759
O             3.4110908343        9.9233510528        4.4636015276
O             3.8988777865        4.6892391432        4.4636015276
O             0.9744346274        5.7789846760        1.4878671759
O             1.0875452914        3.5058531299        2.7849896184
O             3.7857671225        6.9623706893        3.1664790850
O             3.5242014983        1.7282587797        3.1664790850
O             1.3491109156        8.7399650395        2.7849896184
O             3.7857671225        6.9623706893        5.7607239701
O             1.0875452914        3.5058531299        0.1907447333
O             1.3491109156        8.7399650395        0.1907447333
O             3.5242014983        1.7282587797        5.7607239701



     Writing output data file ./out/oliv.save/
     NEW-OLD atomic charge density approx. for the potential

     Check: negative core charge=   -0.000006

     negative rho (up, down):  0.000E+00 1.657E-03
     extrapolated charge  216.01691, renormalised to  216.00000
     Generating pointlists ...

     total cpu time spent up to now is    13689.3 secs

     Self-consistent Calculation

     iteration #  1     ecut=    60.00 Ry     beta= 0.30
     Davidson diagonalization with overlap
     ethr =  1.00E-06,  avg # of iterations =  3.5

     Threshold (ethr) on eigenvalues was too large:
     Diagonalizing with lowered threshold

     Davidson diagonalization with overlap
     ethr =  1.21E-08,  avg # of iterations = 11.0

     negative rho (up, down):  0.000E+00 1.658E-03

     total cpu time spent up to now is    13818.1 secs

     total energy              =   -2738.46926167 Ry
     estimated scf accuracy    <       0.00002967 Ry

     total magnetization       =    16.00 Bohr mag/cell
     absolute magnetization    =    16.14 Bohr mag/cell

     iteration #  2     ecut=    60.00 Ry     beta= 0.30
     Davidson diagonalization with overlap
     ethr =  1.37E-08,  avg # of iterations =  4.8

     negative rho (up, down):  0.000E+00 1.657E-03

     total cpu time spent up to now is    13859.2 secs

     total energy              =   -2738.46928046 Ry
     estimated scf accuracy    <       0.00003017 Ry

     total magnetization       =    16.00 Bohr mag/cell
     absolute magnetization    =    16.14 Bohr mag/cell

     iteration #  3     ecut=    60.00 Ry     beta= 0.30
     Davidson diagonalization with overlap
     ethr =  1.37E-08,  avg # of iterations =  2.0

     negative rho (up, down):  0.000E+00 1.657E-03

     total cpu time spent up to now is    13884.8 secs

     total energy              =   -2738.46928077 Ry
     estimated scf accuracy    <       0.00000674 Ry

     total magnetization       =    16.00 Bohr mag/cell
     absolute magnetization    =    16.14 Bohr mag/cell

     iteration #  4     ecut=    60.00 Ry     beta= 0.30
     Davidson diagonalization with overlap
     ethr =  3.12E-09,  avg # of iterations =  5.0

     negative rho (up, down):  0.000E+00 1.657E-03

     total cpu time spent up to now is    13914.0 secs

     total energy              =   -2738.46928158 Ry
     estimated scf accuracy    <       0.00000100 Ry

     total magnetization       =    16.00 Bohr mag/cell
     absolute magnetization    =    16.14 Bohr mag/cell

     iteration #  5     ecut=    60.00 Ry     beta= 0.30
     Davidson diagonalization with overlap
     ethr =  4.61E-10,  avg # of iterations =  6.8

     negative rho (up, down):  0.000E+00 1.657E-03

     total cpu time spent up to now is    13957.9 secs

     total energy              =   -2738.46928219 Ry
     estimated scf accuracy    <       0.00000019 Ry

     total magnetization       =    16.00 Bohr mag/cell
     absolute magnetization    =    16.14 Bohr mag/cell

     iteration #  6     ecut=    60.00 Ry     beta= 0.30
     Davidson diagonalization with overlap
     ethr =  8.58E-11,  avg # of iterations =  7.4

     negative rho (up, down):  0.000E+00 1.657E-03

     total cpu time spent up to now is    13998.5 secs

     total energy              =   -2738.46928221 Ry
     estimated scf accuracy    <       0.00000008 Ry

     total magnetization       =    16.00 Bohr mag/cell
     absolute magnetization    =    16.14 Bohr mag/cell

     iteration #  7     ecut=    60.00 Ry     beta= 0.30
     Davidson diagonalization with overlap
     ethr =  3.79E-11,  avg # of iterations =  4.6

     negative rho (up, down):  0.000E+00 1.657E-03

     total cpu time spent up to now is    14042.1 secs

     total energy              =   -2738.46928224 Ry
     estimated scf accuracy    <       0.00000009 Ry

     total magnetization       =    16.00 Bohr mag/cell
     absolute magnetization    =    16.14 Bohr mag/cell

     iteration #  8     ecut=    60.00 Ry     beta= 0.30
     Davidson diagonalization with overlap
     ethr =  3.79E-11,  avg # of iterations =  2.5

     negative rho (up, down):  0.000E+00 1.657E-03

     total cpu time spent up to now is    14078.2 secs

     total energy              =   -2738.46928225 Ry
     estimated scf accuracy    <          9.8E-09 Ry

     total magnetization       =    16.00 Bohr mag/cell
     absolute magnetization    =    16.14 Bohr mag/cell

     iteration #  9     ecut=    60.00 Ry     beta= 0.30
     Davidson diagonalization with overlap
     ethr =  4.53E-12,  avg # of iterations =  5.8

     negative rho (up, down):  0.000E+00 1.657E-03

     total cpu time spent up to now is    14135.1 secs

     total energy              =   -2738.46928226 Ry
     estimated scf accuracy    <       0.00000002 Ry

     total magnetization       =    16.00 Bohr mag/cell
     absolute magnetization    =    16.14 Bohr mag/cell

     iteration # 10     ecut=    60.00 Ry     beta= 0.30
     Davidson diagonalization with overlap
     ethr =  4.53E-12,  avg # of iterations =  4.5

     negative rho (up, down):  0.000E+00 1.657E-03

     total cpu time spent up to now is    14181.5 secs

     total energy              =   -2738.46928226 Ry
     estimated scf accuracy    <          2.7E-09 Ry

     total magnetization       =    16.00 Bohr mag/cell
     absolute magnetization    =    16.14 Bohr mag/cell

     iteration # 11     ecut=    60.00 Ry     beta= 0.30
     Davidson diagonalization with overlap
     ethr =  1.27E-12,  avg # of iterations =  4.6

     negative rho (up, down):  0.000E+00 1.657E-03

     total cpu time spent up to now is    14228.6 secs

     total energy              =   -2738.46928227 Ry
     estimated scf accuracy    <          2.2E-09 Ry

     total magnetization       =    16.00 Bohr mag/cell
     absolute magnetization    =    16.14 Bohr mag/cell

     iteration # 12     ecut=    60.00 Ry     beta= 0.30
     Davidson diagonalization with overlap
     ethr =  1.02E-12,  avg # of iterations =  2.6

     negative rho (up, down):  0.000E+00 1.657E-03

     Magnetic moment per site:
     atom:    1    charge:   13.3537    magn:    3.3518    constr:    0.0000
     atom:    2    charge:   13.3537    magn:    3.3518    constr:    0.0000
     atom:    3    charge:   13.3537    magn:    3.3518    constr:    0.0000
     atom:    4    charge:   13.3537    magn:    3.3518    constr:    0.0000
     atom:    5    charge:    8.0831    magn:    0.0010    constr:    0.0000
     atom:    6    charge:    8.0831    magn:    0.0010    constr:    0.0000
     atom:    7    charge:    8.0831    magn:    0.0010    constr:    0.0000
     atom:    8    charge:    8.0831    magn:    0.0010    constr:    0.0000
     atom:    9    charge:    0.3884    magn:    0.0014    constr:    0.0000
     atom:   10    charge:    0.3884    magn:    0.0014    constr:    0.0000
     atom:   11    charge:    0.3884    magn:    0.0014    constr:    0.0000
     atom:   12    charge:    0.3884    magn:    0.0014    constr:    0.0000
     atom:   13    charge:    4.0372    magn:    0.0789    constr:    0.0000
     atom:   14    charge:    4.0372    magn:    0.0789    constr:    0.0000
     atom:   15    charge:    4.0372    magn:    0.0789    constr:    0.0000
     atom:   16    charge:    4.0372    magn:    0.0789    constr:    0.0000
     atom:   17    charge:    4.0319    magn:    0.0834    constr:    0.0000
     atom:   18    charge:    4.0319    magn:    0.0834    constr:    0.0000
     atom:   19    charge:    4.0319    magn:    0.0834    constr:    0.0000
     atom:   20    charge:    4.0319    magn:    0.0834    constr:    0.0000
     atom:   21    charge:    4.0357    magn:    0.0447    constr:    0.0000
     atom:   22    charge:    4.0357    magn:    0.0447    constr:    0.0000
     atom:   23    charge:    4.0357    magn:    0.0447    constr:    0.0000
     atom:   24    charge:    4.0357    magn:    0.0447    constr:    0.0000
     atom:   25    charge:    4.0357    magn:    0.0447    constr:    0.0000
     atom:   26    charge:    4.0357    magn:    0.0447    constr:    0.0000
     atom:   27    charge:    4.0357    magn:    0.0447    constr:    0.0000
     atom:   28    charge:    4.0357    magn:    0.0447    constr:    0.0000

     total cpu time spent up to now is    14268.8 secs

     End of self-consistent calculation

 ------ SPIN UP ------------


          k = 0.0000 0.0000 0.0000 ( 15339 PWs)   bands (ev):

   -80.2227 -80.2227 -80.2203 -80.2202 -65.7876 -65.7876 -65.7875 -65.7875
   -46.7878 -46.7878 -46.7825 -46.7825 -46.1602 -46.1602 -46.1569 -46.1568
   -45.9003 -45.9003 -45.8647 -45.8647 -32.5564 -32.5564 -32.5539 -32.5539
   -32.5338 -32.5337 -32.5335 -32.5334 -32.5159 -32.5159 -32.5124 -32.5123
   -12.1395 -11.9213 -11.6353 -11.4791 -10.5760 -10.5490 -10.4969 -10.4414
   -10.3434 -10.2157 -10.1594 -10.1479 -10.1274 -10.0702  -9.9551  -9.8793
     0.2409   0.2998   0.8339   0.9389   0.9894   0.9996   1.6834   1.8852
     1.9280   2.0199   2.2276   2.3218   2.3524   3.1399   3.1485   3.2932
     3.3683   3.4402   3.4724   3.5437   3.6449   3.6999   3.8113   3.8114
     3.8226   3.8580   4.0271   4.0289   4.2272   4.2388   4.3038   4.3948
     4.5431   4.5573   4.5601   4.8068   4.9194   5.0707   5.1387   5.2066
     5.2181   5.2838   5.4716   5.6661   5.7233   5.7853   5.8076   5.8734
     5.9388   5.9601   6.1697   6.2244   6.2378   6.3659   6.8646   6.8770
     6.9373   7.0159   7.2780   7.3262   7.7405   7.9313   7.9563   7.9715
     7.9907   8.1778   8.2322   8.2705  10.8105  12.6015  13.3794  14.6723
    14.8316  15.4518  15.5666  15.5866  15.5870  15.7818  15.8568  16.0095
    16.1074  16.3499

          k = 0.0000 0.0000-0.3994 ( 15392 PWs)   bands (ev):

   -80.2215 -80.2215 -80.2215 -80.2215 -65.7875 -65.7875 -65.7875 -65.7875
   -46.7851 -46.7851 -46.7851 -46.7851 -46.1585 -46.1585 -46.1585 -46.1585
   -45.8826 -45.8826 -45.8826 -45.8826 -32.5552 -32.5552 -32.5552 -32.5552
   -32.5336 -32.5336 -32.5336 -32.5336 -32.5142 -32.5142 -32.5142 -32.5142
   -11.8361 -11.8361 -11.7486 -11.7486 -10.5393 -10.5393 -10.5074 -10.5074
   -10.3300 -10.3300 -10.1686 -10.1686 -10.0216 -10.0216  -9.9506  -9.9506
     0.5908   0.5908   0.6443   0.6443   1.5169   1.5169   1.6344   1.6344
     2.2188   2.2188   2.5835   2.5835   2.7527   2.7527   3.0889   3.0889
     3.1683   3.1683   3.2915   3.2915   3.5707   3.5707   3.8749   3.8749
     3.9413   3.9413   3.9575   3.9575   4.1309   4.1309   4.2319   4.2319
     4.4877   4.4877   4.7347   4.7347   4.8096   4.8096   4.9971   4.9971
     5.0746   5.0746   5.2286   5.2286   5.6063   5.6063   5.6577   5.6577
     6.1870   6.1870   6.2800   6.2800   6.6962   6.6962   6.7554   6.7554
     7.0800   7.0800   7.1481   7.1481   7.8588   7.8588   7.8728   7.8728
     8.0610   8.0610   8.0648   8.0648  12.6964  12.6964  13.7153  13.7153
    14.5527  14.5527  15.8131  15.8131  15.8247  15.8247  16.7293  16.7293
    16.8385  16.8385

          k =-0.4878 0.0000 0.0000 ( 15374 PWs)   bands (ev):

   -80.2227 -80.2227 -80.2202 -80.2202 -65.7875 -65.7875 -65.7875 -65.7875
   -46.7878 -46.7878 -46.7825 -46.7825 -46.1602 -46.1602 -46.1568 -46.1568
   -45.9003 -45.9003 -45.8648 -45.8648 -32.5553 -32.5553 -32.5552 -32.5552
   -32.5336 -32.5336 -32.5336 -32.5336 -32.5142 -32.5142 -32.5142 -32.5142
   -11.7370 -11.7370 -11.4312 -11.4312 -10.9021 -10.9021 -10.6440 -10.6440
   -10.3479 -10.3479 -10.1119 -10.1119 -10.0202 -10.0202  -9.9973  -9.9973
     0.4652   0.4652   0.5987   0.5987   2.0009   2.0009   2.0067   2.0067
     2.3032   2.3032   2.4257   2.4257   2.5493   2.5493   2.7022   2.7022
     2.9395   2.9395   2.9979   2.9979   3.0491   3.0491   3.6156   3.6156
     4.0388   4.0388   4.2136   4.2136   4.2569   4.2569   4.5143   4.5143
     4.6662   4.6662   4.7331   4.7331   4.8584   4.8584   5.0925   5.0925
     5.2459   5.2459   5.6635   5.6635   5.8472   5.8472   6.0287   6.0287
     6.1630   6.1630   6.3001   6.3001   6.3746   6.3746   6.8839   6.8839
     6.9158   6.9158   7.2792   7.2792   7.5423   7.5423   7.9858   7.9858
     8.1728   8.1728   8.2332   8.2332  13.3523  13.3523  14.0491  14.0491
    14.3051  14.3051  14.8266  14.8266  15.0917  15.0917  15.3442  15.3442
    15.9179  15.9179

          k =-0.4878 0.0000-0.3994 ( 15436 PWs)   bands (ev):

   -80.2215 -80.2215 -80.2215 -80.2215 -65.7875 -65.7875 -65.7875 -65.7875
   -46.7851 -46.7851 -46.7851 -46.7851 -46.1585 -46.1585 -46.1585 -46.1585
   -45.8826 -45.8826 -45.8826 -45.8826 -32.5553 -32.5553 -32.5553 -32.5553
   -32.5336 -32.5336 -32.5336 -32.5336 -32.5142 -32.5142 -32.5142 -32.5142
   -11.5886 -11.5886 -11.5476 -11.5476 -10.7809 -10.7809 -10.7667 -10.7667
   -10.3136 -10.3136 -10.2160 -10.2160 -10.0178 -10.0178  -9.9988  -9.9988
     0.6393   0.6393   0.7195   0.7195   1.9620   1.9620   2.2512   2.2512
     2.3783   2.3783   2.4986   2.4986   2.5804   2.5804   2.7075   2.7075
     3.0539   3.0539   3.0639   3.0639   3.4227   3.4227   3.5091   3.5091
     3.6159   3.6159   3.9185   3.9185   4.4007   4.4007   4.5210   4.5210
     4.6009   4.6009   4.6862   4.6862   4.7280   4.7280   4.8964   4.8964
     5.2371   5.2371   5.3558   5.3558   5.5188   5.5188   5.6778   5.6778
     6.2421   6.2421   6.2808   6.2808   6.7621   6.7621   6.7682   6.7682
     7.0542   7.0542   7.0887   7.0887   7.7751   7.7751   7.7983   7.7983
     8.0979   8.0979   8.1043   8.1043  14.2498  14.2498  14.2676  14.2676
    14.8540  14.8540  14.9134  14.9134  15.2622  15.2622  15.4947  15.4947
    16.3186  16.3187

 ------ SPIN DOWN ----------


          k = 0.0000 0.0000 0.0000 ( 15339 PWs)   bands (ev):

   -76.0907 -76.0905 -76.0879 -76.0878 -65.7868 -65.7868 -65.7867 -65.7867
   -42.3794 -42.3794 -42.3720 -42.3720 -42.2031 -42.2031 -42.1976 -42.1975
   -42.1681 -42.1681 -42.1265 -42.1264 -32.5559 -32.5559 -32.5534 -32.5534
   -32.5328 -32.5327 -32.5324 -32.5324 -32.5148 -32.5148 -32.5113 -32.5112
   -12.0151 -11.7893 -11.5223 -11.3568 -10.4183 -10.3812 -10.3348 -10.2739
   -10.2165 -10.0868 -10.0503 -10.0197  -9.9900  -9.9779  -9.8561  -9.7859
     0.4517   0.4628   0.9379   1.0264   1.1231   1.2240   1.9543   1.9796
     2.0289   2.3594   2.4373   2.5292   2.6216   3.2211   3.2955   3.4686
     3.6826   3.8423   3.9770   4.0378   4.0499   4.1079   4.1512   4.1513
     4.1645   4.2678   4.3890   4.4090   4.5478   4.7069   4.7089   4.7786
     4.9218   5.0136   5.0985   5.2123   5.2524   5.2576   5.2993   5.3871
     5.5881   5.7664   5.8843   5.9054   5.9154   5.9171   6.0473   6.0784
     8.8803   8.9189   9.2025   9.2974   9.6228   9.6601   9.8664   9.9709
    10.0174  10.0836  10.3806  10.3925  11.1243  11.1644  11.2046  11.2372
    11.3199  11.3737  11.3765  11.3897  11.4481  13.1106  13.5111  14.8128
    15.0130  15.7279  15.7918  15.7997  15.8693  15.8979  16.0336  16.2456
    16.2785  16.9142

          k = 0.0000 0.0000-0.3994 ( 15392 PWs)   bands (ev):

   -76.0893 -76.0893 -76.0893 -76.0893 -65.7868 -65.7868 -65.7867 -65.7867
   -42.3757 -42.3757 -42.3756 -42.3756 -42.2000 -42.2000 -42.2000 -42.2000
   -42.1478 -42.1478 -42.1478 -42.1478 -32.5547 -32.5547 -32.5546 -32.5546
   -32.5326 -32.5326 -32.5326 -32.5326 -32.5131 -32.5131 -32.5131 -32.5131
   -11.7120 -11.7120 -11.6237 -11.6237 -10.3758 -10.3758 -10.3437 -10.3437
   -10.2149 -10.2149 -10.0435 -10.0435  -9.9188  -9.9188  -9.8389  -9.8389
     0.7456   0.7456   0.8151   0.8151   1.6883   1.6883   1.7557   1.7557
     2.3974   2.3974   2.7954   2.7954   2.9919   2.9919   3.3138   3.3138
     3.5018   3.5018   3.7326   3.7326   3.9840   3.9840   4.1109   4.1109
     4.2864   4.2864   4.3624   4.3624   4.5888   4.5888   4.6216   4.6216
     5.0064   5.0064   5.0136   5.0136   5.2447   5.2447   5.3127   5.3127
     5.3209   5.3209   5.5901   5.5901   5.9281   5.9281   5.9457   5.9457
     9.3727   9.3727   9.4180   9.4180   9.7046   9.7046   9.7088   9.7088
     9.9919   9.9919  10.0679  10.0679  11.1318  11.1318  11.1561  11.1561
    11.3657  11.3657  11.3972  11.3972  13.0376  13.0376  14.1196  14.1196
    14.7492  14.7492  16.0532  16.0532  16.1501  16.1501  17.0072  17.0072
    17.0965  17.0967

          k =-0.4878 0.0000 0.0000 ( 15374 PWs)   bands (ev):

   -76.0907 -76.0907 -76.0878 -76.0878 -65.7868 -65.7868 -65.7867 -65.7867
   -42.3795 -42.3795 -42.3720 -42.3720 -42.2031 -42.2031 -42.1975 -42.1975
   -42.1682 -42.1682 -42.1265 -42.1265 -32.5547 -32.5547 -32.5547 -32.5547
   -32.5326 -32.5326 -32.5326 -32.5326 -32.5130 -32.5130 -32.5130 -32.5130
   -11.6171 -11.6171 -11.3115 -11.3115 -10.7353 -10.7353 -10.4970 -10.4970
   -10.2030 -10.2030  -9.9722  -9.9722  -9.9219  -9.9219  -9.9045  -9.9045
     0.6169   0.6169   0.6827   0.6827   2.1763   2.1763   2.2278   2.2278
     2.5493   2.5493   2.6350   2.6350   2.8617   2.8617   2.9749   2.9749
     3.1881   3.1881   3.2456   3.2456   3.4086   3.4086   3.8447   3.8447
     4.3673   4.3673   4.6290   4.6290   4.8507   4.8507   4.8892   4.8892
     5.0672   5.0672   5.1664   5.1664   5.3867   5.3867   5.4058   5.4058
     5.6943   5.6943   5.8489   5.8489   6.0037   6.0037   6.3520   6.3520
     8.9443   8.9443   9.2100   9.2100   9.6384   9.6384   9.9400   9.9400
    10.1166  10.1166  10.4288  10.4288  10.8954  10.8954  11.1459  11.1459
    11.4494  11.4494  11.4691  11.4691  13.5888  13.5888  14.2472  14.2472
    14.7165  14.7165  15.0017  15.0017  15.2447  15.2447  15.6488  15.6488
    16.5010  16.5010

          k =-0.4878 0.0000-0.3994 ( 15436 PWs)   bands (ev):

   -76.0894 -76.0894 -76.0894 -76.0894 -65.7868 -65.7868 -65.7868 -65.7868
   -42.3757 -42.3757 -42.3757 -42.3757 -42.2001 -42.2001 -42.2000 -42.2000
   -42.1478 -42.1478 -42.1478 -42.1478 -32.5548 -32.5548 -32.5547 -32.5547
   -32.5326 -32.5326 -32.5326 -32.5326 -32.5131 -32.5131 -32.5130 -32.5130
   -11.4674 -11.4674 -11.4247 -11.4247 -10.6220 -10.6220 -10.6142 -10.6142
   -10.1769 -10.1769 -10.0899 -10.0899  -9.9093  -9.9093  -9.8968  -9.8968
     0.7598   0.7598   0.8535   0.8535   2.2773   2.2773   2.5097   2.5097
     2.6373   2.6373   2.7385   2.7385   2.7619   2.7619   2.9463   2.9463
     3.2538   3.2538   3.2746   3.2746   3.6578   3.6578   3.7223   3.7223
     3.8917   3.8917   4.2984   4.2984   4.7823   4.7823   4.8303   4.8303
     4.9523   4.9523   5.3181   5.3181   5.3598   5.3598   5.4434   5.4434
     5.6090   5.6090   5.6950   5.6950   5.8931   5.8931   5.9330   5.9330
     9.3503   9.3503   9.3711   9.3711   9.7623   9.7623   9.7730   9.7730
    10.0305  10.0305  10.0452  10.0452  11.0001  11.0001  11.0099  11.0099
    11.2885  11.2885  11.2908  11.2908  14.6060  14.6060  14.6587  14.6587
    15.2117  15.2117  15.2428  15.2428  15.5147  15.5147  15.8539  15.8539
    16.5183  16.5183

     the Fermi energy is     9.5230 ev

!    total energy              =   -2738.46928227 Ry

     total all-electron energy =    -16515.670192 Ry
     estimated scf accuracy    <          3.9E-10 Ry
     smearing contrib. (-TS)   =      -0.00386018 Ry
     internal energy E=F+TS    =   -2738.46542208 Ry

     The total energy is F=E-TS. E is the sum of the following terms:
     one-electron contribution =   -1243.67308871 Ry
     hartree contribution      =     722.45902696 Ry
     xc contribution           =    -328.22670625 Ry
     ewald contribution        =   -1202.54153070 Ry
     one-center paw contrib.   =    -686.48312339 Ry

     total magnetization       =    16.00 Bohr mag/cell
     absolute magnetization    =    16.14 Bohr mag/cell

     convergence has been achieved in  12 iterations

     negative rho (up, down):  0.000E+00 1.657E-03

     Forces acting on atoms (cartesian axes, Ry/au):

     atom    1 type  1   force =     0.00000000    0.00000000    0.00000000
     atom    2 type  1   force =     0.00000000    0.00000000   -0.00000000
     atom    3 type  1   force =     0.00000000    0.00000000    0.00000000
     atom    4 type  1   force =     0.00000000    0.00000000   -0.00000000
     atom    5 type  2   force =    -0.00010549   -0.00015674    0.00000000
     atom    6 type  2   force =     0.00010549    0.00015674   -0.00000000
     atom    7 type  2   force =    -0.00010549    0.00015674    0.00000000
     atom    8 type  2   force =     0.00010549   -0.00015674    0.00000000
     atom    9 type  3   force =    -0.00008305   -0.00044694   -0.00000000
     atom   10 type  3   force =     0.00008305    0.00044694    0.00000000
     atom   11 type  3   force =    -0.00008305    0.00044694    0.00000000
     atom   12 type  3   force =     0.00008305   -0.00044694   -0.00000000
     atom   13 type  4   force =    -0.00022316   -0.00030841    0.00000000
     atom   14 type  4   force =     0.00022316    0.00030841    0.00000000
     atom   15 type  4   force =    -0.00022316    0.00030841    0.00000000
     atom   16 type  4   force =     0.00022316   -0.00030841    0.00000000
     atom   17 type  4   force =    -0.00022784   -0.00042895    0.00000000
     atom   18 type  4   force =     0.00022784    0.00042895    0.00000000
     atom   19 type  4   force =    -0.00022784    0.00042895    0.00000000
     atom   20 type  4   force =     0.00022784   -0.00042895    0.00000000
     atom   21 type  4   force =    -0.00015494    0.00001788    0.00002315
     atom   22 type  4   force =     0.00015494   -0.00001788   -0.00002315
     atom   23 type  4   force =    -0.00015494   -0.00001788   -0.00002315
     atom   24 type  4   force =     0.00015494    0.00001788    0.00002315
     atom   25 type  4   force =     0.00015494   -0.00001788    0.00002315
     atom   26 type  4   force =    -0.00015494    0.00001788   -0.00002315
     atom   27 type  4   force =     0.00015494    0.00001788   -0.00002315
     atom   28 type  4   force =    -0.00015494   -0.00001788    0.00002315

     Total force =     0.001641     Total SCF correction =     0.000036


     Computing stress (Cartesian axis) and pressure


     negative rho (up, down):  0.000E+00 1.657E-03
          total   stress  (Ry/bohr**3)                   (kbar)     P=       -0.06
  -0.00000059   0.00000000   0.00000000           -0.09        0.00        0.00
   0.00000000  -0.00000387   0.00000000            0.00       -0.57        0.00
   0.00000000   0.00000000   0.00000317            0.00        0.00        0.47

     Energy error            =      1.1E-05
     Gradient error          =      4.5E-04
     Cell gradient error     =      3.9E-06


     number of scf cycles    =  17
     number of bfgs steps    =  16

     enthalpy old            =   -2738.4692708874 Ry
     enthalpy new            =   -2738.4692822662 Ry

     CASE: enthalpy_new < enthalpy_old

     new trust radius        =       0.0018738669 bohr
     new conv_thr            =       0.0000000011 Ry

     new unit-cell volume =   2049.04941 a.u.^3 (   303.63779 Ang^3 )
     density =      3.76760 g/cm^3

CELL_PARAMETERS (angstrom)
   4.873874525   0.000000000   0.000000000
   0.000000000  10.466139250   0.000000000
   0.000000000   0.000000000   5.952439307

ATOMIC_POSITIONS (angstrom)
Fe            0.0000000000        0.0000000000       -0.0000000000
Fe            2.4369372624        5.2330696250        0.0000000000
Fe           -0.0000000000       -0.0000000000        2.9762196535
Fe            2.4369372624        5.2330696250        2.9762196535
Mg            0.0547422638        2.8951133508        4.4643294803
Mg            4.8191322609        7.5710258993        1.4881098268
Mg            2.4916795262        2.3379562743        1.4881098268
Mg            2.3821949985        8.1281829758        4.4643294803
Si            0.3589936649        4.2250629496        1.4881098268
Si            4.5148808599        6.2410763005        4.4643294803
Si            2.7959309272        1.0080066754        4.4643294803
Si            2.0779435975        9.4581325746        1.4881098268
O             1.1549954542        1.0399870596        4.4643294803
O             3.7188790705        9.4261521905        1.4881098268
O             3.5919327165        4.1930825655        1.4881098268
O             1.2819418082        6.2730566846        4.4643294803
O             1.4619217524        0.5438904494        1.4881098268
O             3.4119527723        9.9222488007        4.4643294803
O             3.8988590148        4.6891791756        4.4643294803
O             0.9750155099        5.7769600745        1.4881098268
O             1.0870486951        3.5046374973        2.7853080938
O             3.7868258296        6.9615017528        3.1671312132
O             3.5239859574        1.7284321277        3.1671312132
O             1.3498885673        8.7377071224        2.7853080938
O             3.7868258296        6.9615017528        5.7615277473
O             1.0870486951        3.5046374973        0.1909115597
O             1.3498885673        8.7377071224        0.1909115597
O             3.5239859574        1.7284321277        5.7615277473



     Writing output data file ./out/oliv.save/
     NEW-OLD atomic charge density approx. for the potential

     Check: negative core charge=   -0.000006

     negative rho (up, down):  0.000E+00 1.657E-03
     extrapolated charge  216.01712, renormalised to  216.00000
     Generating pointlists ...

     total cpu time spent up to now is    14311.2 secs

     Self-consistent Calculation

     iteration #  1     ecut=    60.00 Ry     beta= 0.30
     Davidson diagonalization with overlap
     ethr =  1.00E-06,  avg # of iterations =  4.0

     Threshold (ethr) on eigenvalues was too large:
     Diagonalizing with lowered threshold

     Davidson diagonalization with overlap
     ethr =  1.29E-08,  avg # of iterations =  9.9

     negative rho (up, down):  0.000E+00 1.658E-03

     total cpu time spent up to now is    14421.5 secs

     total energy              =   -2738.46927099 Ry
     estimated scf accuracy    <       0.00002476 Ry

     total magnetization       =    16.00 Bohr mag/cell
     absolute magnetization    =    16.14 Bohr mag/cell

     iteration #  2     ecut=    60.00 Ry     beta= 0.30
     Davidson diagonalization with overlap
     ethr =  1.15E-08,  avg # of iterations =  4.5

     negative rho (up, down):  0.000E+00 1.657E-03

     total cpu time spent up to now is    14463.6 secs

     total energy              =   -2738.46928818 Ry
     estimated scf accuracy    <       0.00002932 Ry

     total magnetization       =    16.00 Bohr mag/cell
     absolute magnetization    =    16.14 Bohr mag/cell

     iteration #  3     ecut=    60.00 Ry     beta= 0.30
     Davidson diagonalization with overlap
     ethr =  1.15E-08,  avg # of iterations =  2.0

     negative rho (up, down):  0.000E+00 1.657E-03

     total cpu time spent up to now is    14495.2 secs

     total energy              =   -2738.46928811 Ry
     estimated scf accuracy    <       0.00000748 Ry

     total magnetization       =    16.00 Bohr mag/cell
     absolute magnetization    =    16.14 Bohr mag/cell

     iteration #  4     ecut=    60.00 Ry     beta= 0.30
     Davidson diagonalization with overlap
     ethr =  3.46E-09,  avg # of iterations =  4.0

     negative rho (up, down):  0.000E+00 1.657E-03

     total cpu time spent up to now is    14530.5 secs

     total energy              =   -2738.46928864 Ry
     estimated scf accuracy    <       0.00000121 Ry

     total magnetization       =    16.00 Bohr mag/cell
     absolute magnetization    =    16.14 Bohr mag/cell

     iteration #  5     ecut=    60.00 Ry     beta= 0.30
     Davidson diagonalization with overlap
     ethr =  5.60E-10,  avg # of iterations =  7.9

     negative rho (up, down):  0.000E+00 1.657E-03

     total cpu time spent up to now is    14583.6 secs

     total energy              =   -2738.46928935 Ry
     estimated scf accuracy    <       0.00000032 Ry

     total magnetization       =    16.00 Bohr mag/cell
     absolute magnetization    =    16.14 Bohr mag/cell

     iteration #  6     ecut=    60.00 Ry     beta= 0.30
     Davidson diagonalization with overlap
     ethr =  1.50E-10,  avg # of iterations =  4.9

     negative rho (up, down):  0.000E+00 1.657E-03

     total cpu time spent up to now is    14625.3 secs

     total energy              =   -2738.46928936 Ry
     estimated scf accuracy    <       0.00000011 Ry

     total magnetization       =    16.00 Bohr mag/cell
     absolute magnetization    =    16.14 Bohr mag/cell

     iteration #  7     ecut=    60.00 Ry     beta= 0.30
     Davidson diagonalization with overlap
     ethr =  5.08E-11,  avg # of iterations =  6.6

     negative rho (up, down):  0.000E+00 1.657E-03

     total cpu time spent up to now is    14678.2 secs

     total energy              =   -2738.46928940 Ry
     estimated scf accuracy    <       0.00000012 Ry

     total magnetization       =    16.00 Bohr mag/cell
     absolute magnetization    =    16.14 Bohr mag/cell

     iteration #  8     ecut=    60.00 Ry     beta= 0.30
     Davidson diagonalization with overlap
     ethr =  5.08E-11,  avg # of iterations =  2.1

     negative rho (up, down):  0.000E+00 1.657E-03

     total cpu time spent up to now is    14712.4 secs

     total energy              =   -2738.46928942 Ry
     estimated scf accuracy    <          9.9E-09 Ry

     total magnetization       =    16.00 Bohr mag/cell
     absolute magnetization    =    16.14 Bohr mag/cell

     iteration #  9     ecut=    60.00 Ry     beta= 0.30
     Davidson diagonalization with overlap
     ethr =  4.59E-12,  avg # of iterations =  6.9

     negative rho (up, down):  0.000E+00 1.657E-03

     total cpu time spent up to now is    14763.9 secs

     total energy              =   -2738.46928943 Ry
     estimated scf accuracy    <          6.6E-09 Ry

     total magnetization       =    16.00 Bohr mag/cell
     absolute magnetization    =    16.14 Bohr mag/cell

     iteration # 10     ecut=    60.00 Ry     beta= 0.30
     Davidson diagonalization with overlap
     ethr =  3.03E-12,  avg # of iterations =  2.0

     negative rho (up, down):  0.000E+00 1.657E-03

     total cpu time spent up to now is    14789.7 secs

     total energy              =   -2738.46928943 Ry
     estimated scf accuracy    <          1.8E-09 Ry

     total magnetization       =    16.00 Bohr mag/cell
     absolute magnetization    =    16.14 Bohr mag/cell

     iteration # 11     ecut=    60.00 Ry     beta= 0.30
     Davidson diagonalization with overlap
     ethr =  8.43E-13,  avg # of iterations =  6.5

     negative rho (up, down):  0.000E+00 1.657E-03

     total cpu time spent up to now is    14847.0 secs

     total energy              =   -2738.46928943 Ry
     estimated scf accuracy    <          7.8E-09 Ry

     total magnetization       =    16.00 Bohr mag/cell
     absolute magnetization    =    16.14 Bohr mag/cell

     iteration # 12     ecut=    60.00 Ry     beta= 0.30
     Davidson diagonalization with overlap
     ethr =  8.43E-13,  avg # of iterations =  2.5

     negative rho (up, down):  0.000E+00 1.657E-03

     total cpu time spent up to now is    14880.3 secs

     total energy              =   -2738.46928943 Ry
     estimated scf accuracy    <          3.0E-09 Ry

     total magnetization       =    16.00 Bohr mag/cell
     absolute magnetization    =    16.14 Bohr mag/cell

     iteration # 13     ecut=    60.00 Ry     beta= 0.30
     Davidson diagonalization with overlap
     ethr =  8.43E-13,  avg # of iterations =  4.9

     negative rho (up, down):  0.000E+00 1.657E-03

     Magnetic moment per site:
     atom:    1    charge:   13.3536    magn:    3.3519    constr:    0.0000
     atom:    2    charge:   13.3536    magn:    3.3519    constr:    0.0000
     atom:    3    charge:   13.3536    magn:    3.3519    constr:    0.0000
     atom:    4    charge:   13.3536    magn:    3.3519    constr:    0.0000
     atom:    5    charge:    8.0831    magn:    0.0010    constr:    0.0000
     atom:    6    charge:    8.0831    magn:    0.0010    constr:    0.0000
     atom:    7    charge:    8.0831    magn:    0.0010    constr:    0.0000
     atom:    8    charge:    8.0831    magn:    0.0010    constr:    0.0000
     atom:    9    charge:    0.3884    magn:    0.0014    constr:    0.0000
     atom:   10    charge:    0.3884    magn:    0.0014    constr:    0.0000
     atom:   11    charge:    0.3884    magn:    0.0014    constr:    0.0000
     atom:   12    charge:    0.3884    magn:    0.0014    constr:    0.0000
     atom:   13    charge:    4.0372    magn:    0.0789    constr:    0.0000
     atom:   14    charge:    4.0372    magn:    0.0789    constr:    0.0000
     atom:   15    charge:    4.0372    magn:    0.0789    constr:    0.0000
     atom:   16    charge:    4.0372    magn:    0.0789    constr:    0.0000
     atom:   17    charge:    4.0320    magn:    0.0833    constr:    0.0000
     atom:   18    charge:    4.0320    magn:    0.0833    constr:    0.0000
     atom:   19    charge:    4.0320    magn:    0.0833    constr:    0.0000
     atom:   20    charge:    4.0320    magn:    0.0833    constr:    0.0000
     atom:   21    charge:    4.0358    magn:    0.0447    constr:    0.0000
     atom:   22    charge:    4.0358    magn:    0.0447    constr:    0.0000
     atom:   23    charge:    4.0358    magn:    0.0447    constr:    0.0000
     atom:   24    charge:    4.0358    magn:    0.0447    constr:    0.0000
     atom:   25    charge:    4.0358    magn:    0.0447    constr:    0.0000
     atom:   26    charge:    4.0358    magn:    0.0447    constr:    0.0000
     atom:   27    charge:    4.0358    magn:    0.0447    constr:    0.0000
     atom:   28    charge:    4.0358    magn:    0.0447    constr:    0.0000

     total cpu time spent up to now is    14933.6 secs

     End of self-consistent calculation

 ------ SPIN UP ------------


          k = 0.0000 0.0000 0.0000 ( 15339 PWs)   bands (ev):

   -80.2234 -80.2233 -80.2209 -80.2209 -65.7891 -65.7891 -65.7890 -65.7890
   -46.7882 -46.7882 -46.7829 -46.7829 -46.1611 -46.1611 -46.1578 -46.1577
   -45.9008 -45.9008 -45.8654 -45.8654 -32.5580 -32.5579 -32.5555 -32.5555
   -32.5353 -32.5352 -32.5349 -32.5349 -32.5173 -32.5173 -32.5138 -32.5137
   -12.1401 -11.9217 -11.6364 -11.4801 -10.5770 -10.5493 -10.4982 -10.4426
   -10.3441 -10.2153 -10.1595 -10.1487 -10.1273 -10.0711  -9.9555  -9.8799
     0.2395   0.2993   0.8329   0.9380   0.9892   1.0001   1.6828   1.8847
     1.9275   2.0198   2.2272   2.3219   2.3521   3.1405   3.1477   3.2921
     3.3665   3.4396   3.4721   3.5432   3.6438   3.6993   3.8093   3.8101
     3.8228   3.8574   4.0261   4.0289   4.2255   4.2386   4.3042   4.3941
     4.5420   4.5590   4.5600   4.8063   4.9197   5.0691   5.1388   5.2055
     5.2175   5.2832   5.4700   5.6645   5.7239   5.7868   5.8062   5.8725
     5.9392   5.9605   6.1682   6.2238   6.2372   6.3648   6.8626   6.8749
     6.9373   7.0156   7.2773   7.3254   7.7390   7.9313   7.9542   7.9714
     7.9900   8.1756   8.2327   8.2702  10.8089  12.6002  13.3759  14.6697
    14.8311  15.4522  15.5656  15.5838  15.5849  15.7825  15.8556  16.0113
    16.1052  16.3473

          k = 0.0000 0.0000-0.3993 ( 15392 PWs)   bands (ev):

   -80.2221 -80.2221 -80.2221 -80.2221 -65.7890 -65.7890 -65.7890 -65.7890
   -46.7856 -46.7856 -46.7855 -46.7855 -46.1594 -46.1594 -46.1594 -46.1594
   -45.8832 -45.8832 -45.8832 -45.8832 -32.5567 -32.5567 -32.5567 -32.5567
   -32.5351 -32.5351 -32.5351 -32.5351 -32.5156 -32.5156 -32.5156 -32.5156
   -11.8369 -11.8369 -11.7494 -11.7494 -10.5399 -10.5399 -10.5085 -10.5085
   -10.3307 -10.3307 -10.1684 -10.1684 -10.0223 -10.0223  -9.9510  -9.9510
     0.5900   0.5900   0.6431   0.6431   1.5172   1.5172   1.6344   1.6344
     2.2180   2.2180   2.5828   2.5828   2.7517   2.7517   3.0877   3.0877
     3.1672   3.1672   3.2904   3.2904   3.5704   3.5704   3.8734   3.8734
     3.9403   3.9403   3.9569   3.9569   4.1302   4.1302   4.2308   4.2308
     4.4885   4.4885   4.7354   4.7354   4.8083   4.8083   4.9973   4.9973
     5.0753   5.0753   5.2283   5.2283   5.6061   5.6061   5.6582   5.6582
     6.1861   6.1861   6.2791   6.2791   6.6956   6.6956   6.7545   6.7545
     7.0796   7.0796   7.1475   7.1475   7.8586   7.8586   7.8726   7.8726
     8.0592   8.0592   8.0633   8.0633  12.6946  12.6946  13.7139  13.7139
    14.5496  14.5496  15.8121  15.8121  15.8251  15.8251  16.7271  16.7271
    16.8349  16.8349

          k =-0.4877 0.0000 0.0000 ( 15374 PWs)   bands (ev):

   -80.2234 -80.2234 -80.2209 -80.2209 -65.7890 -65.7890 -65.7890 -65.7890
   -46.7882 -46.7882 -46.7829 -46.7829 -46.1611 -46.1611 -46.1577 -46.1577
   -45.9009 -45.9009 -45.8654 -45.8654 -32.5568 -32.5568 -32.5568 -32.5568
   -32.5351 -32.5351 -32.5351 -32.5351 -32.5156 -32.5156 -32.5155 -32.5155
   -11.7377 -11.7377 -11.4322 -11.4322 -10.9032 -10.9032 -10.6450 -10.6450
   -10.3476 -10.3476 -10.1118 -10.1118 -10.0208 -10.0208  -9.9980  -9.9980
     0.4649   0.4649   0.5986   0.5986   2.0007   2.0007   2.0056   2.0056
     2.3028   2.3028   2.4248   2.4248   2.5489   2.5489   2.7016   2.7016
     2.9385   2.9385   2.9979   2.9979   3.0479   3.0479   3.6144   3.6144
     4.0383   4.0383   4.2127   4.2127   4.2562   4.2562   4.5144   4.5144
     4.6650   4.6650   4.7337   4.7337   4.8573   4.8573   5.0934   5.0934
     5.2450   5.2450   5.6641   5.6641   5.8455   5.8455   6.0293   6.0293
     6.1625   6.1625   6.2988   6.2988   6.3739   6.3739   6.8835   6.8835
     6.9136   6.9136   7.2786   7.2786   7.5405   7.5405   7.9865   7.9865
     8.1723   8.1723   8.2312   8.2312  13.3506  13.3506  14.0459  14.0459
    14.3050  14.3050  14.8279  14.8279  15.0905  15.0905  15.3437  15.3437
    15.9166  15.9166

          k =-0.4877 0.0000-0.3993 ( 15436 PWs)   bands (ev):

   -80.2222 -80.2222 -80.2222 -80.2222 -65.7890 -65.7890 -65.7890 -65.7890
   -46.7856 -46.7856 -46.7855 -46.7855 -46.1594 -46.1594 -46.1594 -46.1594
   -45.8832 -45.8832 -45.8832 -45.8832 -32.5569 -32.5569 -32.5568 -32.5568
   -32.5351 -32.5351 -32.5351 -32.5351 -32.5156 -32.5156 -32.5155 -32.5155
   -11.5895 -11.5895 -11.5485 -11.5485 -10.7820 -10.7820 -10.7678 -10.7678
   -10.3134 -10.3134 -10.2158 -10.2158 -10.0184 -10.0184  -9.9994  -9.9994
     0.6391   0.6391   0.7191   0.7191   1.9608   1.9608   2.2506   2.2506
     2.3771   2.3771   2.4975   2.4975   2.5802   2.5802   2.7069   2.7069
     3.0527   3.0527   3.0629   3.0629   3.4221   3.4221   3.5080   3.5080
     3.6161   3.6161   3.9176   3.9176   4.4011   4.4011   4.5190   4.5190
     4.5997   4.5997   4.6871   4.6871   4.7269   4.7269   4.8968   4.8968
     5.2373   5.2373   5.3566   5.3566   5.5185   5.5185   5.6782   5.6782
     6.2411   6.2411   6.2798   6.2798   6.7616   6.7616   6.7677   6.7677
     7.0533   7.0533   7.0881   7.0881   7.7743   7.7743   7.7976   7.7976
     8.0965   8.0965   8.1032   8.1032  14.2468  14.2468  14.2668  14.2668
    14.8550  14.8550  14.9142  14.9142  15.2597  15.2597  15.4927  15.4927
    16.3170  16.3170

 ------ SPIN DOWN ----------


          k = 0.0000 0.0000 0.0000 ( 15339 PWs)   bands (ev):

   -76.0912 -76.0910 -76.0884 -76.0883 -65.7883 -65.7883 -65.7882 -65.7882
   -42.3799 -42.3798 -42.3725 -42.3724 -42.2040 -42.2039 -42.1984 -42.1984
   -42.1683 -42.1683 -42.1267 -42.1267 -32.5574 -32.5574 -32.5550 -32.5550
   -32.5343 -32.5342 -32.5339 -32.5339 -32.5162 -32.5162 -32.5126 -32.5126
   -12.0158 -11.7898 -11.5233 -11.3578 -10.4195 -10.3816 -10.3362 -10.2752
   -10.2172 -10.0865 -10.0511 -10.0199  -9.9900  -9.9789  -9.8566  -9.7865
     0.4503   0.4625   0.9369   1.0256   1.1229   1.2243   1.9538   1.9790
     2.0284   2.3593   2.4370   2.5288   2.6218   3.2217   3.2947   3.4667
     3.6819   3.8414   3.9772   4.0363   4.0493   4.1073   4.1504   4.1511
     4.1634   4.2668   4.3879   4.4071   4.5477   4.7061   4.7078   4.7770
     4.9206   5.0136   5.0986   5.2107   5.2530   5.2573   5.2995   5.3861
     5.5865   5.7645   5.8825   5.9068   5.9158   5.9161   6.0465   6.0781
     8.8799   8.9188   9.2037   9.2984   9.6220   9.6592   9.8657   9.9703
    10.0169  10.0833  10.3796  10.3913  11.1237  11.1631  11.2046  11.2366
    11.3185  11.3739  11.3766  11.3888  11.4467  13.1089  13.5075  14.8096
    15.0120  15.7289  15.7885  15.7992  15.8697  15.8966  16.0309  16.2479
    16.2766  16.9127

          k = 0.0000 0.0000-0.3993 ( 15392 PWs)   bands (ev):

   -76.0898 -76.0898 -76.0898 -76.0898 -65.7882 -65.7882 -65.7882 -65.7882
   -42.3761 -42.3761 -42.3761 -42.3761 -42.2009 -42.2009 -42.2009 -42.2009
   -42.1480 -42.1480 -42.1480 -42.1480 -32.5562 -32.5562 -32.5562 -32.5562
   -32.5341 -32.5341 -32.5341 -32.5341 -32.5145 -32.5145 -32.5145 -32.5145
   -11.7129 -11.7129 -11.6245 -11.6245 -10.3764 -10.3764 -10.3450 -10.3450
   -10.2157 -10.2157 -10.0434 -10.0434  -9.9196  -9.9196  -9.8394  -9.8394
     0.7449   0.7449   0.8139   0.8139   1.6885   1.6885   1.7555   1.7555
     2.3966   2.3966   2.7945   2.7945   2.9912   2.9912   3.3128   3.3128
     3.5011   3.5011   3.7316   3.7316   3.9838   3.9838   4.1094   4.1094
     4.2849   4.2849   4.3609   4.3609   4.5881   4.5881   4.6200   4.6200
     5.0050   5.0050   5.0134   5.0134   5.2444   5.2444   5.3140   5.3140
     5.3212   5.3212   5.5893   5.5893   5.9284   5.9284   5.9459   5.9459
     9.3722   9.3722   9.4173   9.4173   9.7046   9.7046   9.7087   9.7087
     9.9914   9.9914  10.0677  10.0677  11.1317  11.1317  11.1558  11.1558
    11.3644  11.3644  11.3961  11.3961  13.0360  13.0360  14.1181  14.1181
    14.7461  14.7461  16.0514  16.0514  16.1504  16.1504  17.0054  17.0054
    17.0947  17.0949

          k =-0.4877 0.0000 0.0000 ( 15374 PWs)   bands (ev):

   -76.0912 -76.0912 -76.0884 -76.0884 -65.7882 -65.7882 -65.7882 -65.7882
   -42.3799 -42.3799 -42.3725 -42.3725 -42.2040 -42.2040 -42.1984 -42.1984
   -42.1684 -42.1684 -42.1267 -42.1267 -32.5563 -32.5563 -32.5562 -32.5562
   -32.5341 -32.5341 -32.5340 -32.5340 -32.5144 -32.5144 -32.5144 -32.5144
   -11.6179 -11.6179 -11.3126 -11.3126 -10.7364 -10.7364 -10.4981 -10.4981
   -10.2028 -10.2028  -9.9722  -9.9722  -9.9226  -9.9226  -9.9053  -9.9053
     0.6168   0.6168   0.6826   0.6826   2.1762   2.1762   2.2269   2.2269
     2.5491   2.5491   2.6330   2.6330   2.8611   2.8611   2.9742   2.9742
     3.1875   3.1875   3.2454   3.2454   3.4077   3.4077   3.8434   3.8434
     4.3663   4.3663   4.6283   4.6283   4.8487   4.8487   4.8896   4.8896
     5.0670   5.0670   5.1644   5.1644   5.3878   5.3878   5.4059   5.4059
     5.6929   5.6929   5.8494   5.8494   6.0019   6.0019   6.3517   6.3517
     8.9437   8.9437   9.2110   9.2110   9.6375   9.6375   9.9393   9.9393
    10.1164  10.1164  10.4277  10.4277  10.8941  10.8941  11.1463  11.1463
    11.4493  11.4493  11.4671  11.4671  13.5868  13.5868  14.2445  14.2445
    14.7160  14.7160  15.0032  15.0032  15.2451  15.2451  15.6467  15.6467
    16.4982  16.4982

          k =-0.4877 0.0000-0.3993 ( 15436 PWs)   bands (ev):

   -76.0899 -76.0899 -76.0899 -76.0899 -65.7882 -65.7882 -65.7882 -65.7882
   -42.3761 -42.3761 -42.3761 -42.3761 -42.2009 -42.2009 -42.2009 -42.2009
   -42.1480 -42.1480 -42.1480 -42.1480 -32.5563 -32.5563 -32.5563 -32.5563
   -32.5341 -32.5341 -32.5341 -32.5341 -32.5144 -32.5144 -32.5144 -32.5144
   -11.4684 -11.4684 -11.4257 -11.4257 -10.6232 -10.6232 -10.6153 -10.6153
   -10.1768 -10.1768 -10.0898 -10.0898  -9.9099  -9.9099  -9.8974  -9.8974
     0.7596   0.7596   0.8532   0.8532   2.2759   2.2759   2.5090   2.5090
     2.6363   2.6363   2.7384   2.7384   2.7611   2.7611   2.9451   2.9451
     3.2524   3.2524   3.2734   3.2734   3.6574   3.6574   3.7211   3.7211
     3.8917   3.8917   4.2973   4.2973   4.7811   4.7811   4.8298   4.8298
     4.9511   4.9511   5.3180   5.3180   5.3592   5.3592   5.4444   5.4444
     5.6084   5.6084   5.6958   5.6958   5.8921   5.8921   5.9328   5.9328
     9.3496   9.3496   9.3704   9.3704   9.7622   9.7622   9.7731   9.7731
    10.0302  10.0302  10.0449  10.0449  10.9996  10.9996  11.0095  11.0095
    11.2874  11.2874  11.2897  11.2897  14.6023  14.6023  14.6579  14.6579
    15.2131  15.2131  15.2436  15.2436  15.5125  15.5125  15.8525  15.8525
    16.5166  16.5166

     the Fermi energy is     9.5224 ev

!    total energy              =   -2738.46928943 Ry

     total all-electron energy =    -16515.670200 Ry
     estimated scf accuracy    <          1.2E-10 Ry
     smearing contrib. (-TS)   =      -0.00385879 Ry
     internal energy E=F+TS    =   -2738.46543064 Ry

     The total energy is F=E-TS. E is the sum of the following terms:
     one-electron contribution =   -1243.66804721 Ry
     hartree contribution      =     722.45084832 Ry
     xc contribution           =    -328.22665718 Ry
     ewald contribution        =   -1202.53841582 Ry
     one-center paw contrib.   =    -686.48315875 Ry

     total magnetization       =    16.00 Bohr mag/cell
     absolute magnetization    =    16.14 Bohr mag/cell

     convergence has been achieved in  13 iterations

     negative rho (up, down):  0.000E+00 1.657E-03

     Forces acting on atoms (cartesian axes, Ry/au):

     atom    1 type  1   force =     0.00000000    0.00000000    0.00000000
     atom    2 type  1   force =    -0.00000000    0.00000000   -0.00000000
     atom    3 type  1   force =     0.00000000   -0.00000000    0.00000000
     atom    4 type  1   force =     0.00000000    0.00000000    0.00000000
     atom    5 type  2   force =    -0.00020030   -0.00033793    0.00000000
     atom    6 type  2   force =     0.00020030    0.00033793    0.00000000
     atom    7 type  2   force =    -0.00020030    0.00033793    0.00000000
     atom    8 type  2   force =     0.00020030   -0.00033793    0.00000000
     atom    9 type  3   force =     0.00006855   -0.00020423    0.00000000
     atom   10 type  3   force =    -0.00006855    0.00020423    0.00000000
     atom   11 type  3   force =     0.00006855    0.00020423   -0.00000000
     atom   12 type  3   force =    -0.00006855   -0.00020423    0.00000000
     atom   13 type  4   force =    -0.00019873   -0.00015249    0.00000000
     atom   14 type  4   force =     0.00019873    0.00015249    0.00000000
     atom   15 type  4   force =    -0.00019873    0.00015249    0.00000000
     atom   16 type  4   force =     0.00019873   -0.00015249    0.00000000
     atom   17 type  4   force =    -0.00010511   -0.00015845    0.00000000
     atom   18 type  4   force =     0.00010511    0.00015845   -0.00000000
     atom   19 type  4   force =    -0.00010511    0.00015845   -0.00000000
     atom   20 type  4   force =     0.00010511   -0.00015845    0.00000000
     atom   21 type  4   force =    -0.00010153   -0.00006958    0.00009245
     atom   22 type  4   force =     0.00010153    0.00006958   -0.00009245
     atom   23 type  4   force =    -0.00010153    0.00006958   -0.00009245
     atom   24 type  4   force =     0.00010153   -0.00006958    0.00009245
     atom   25 type  4   force =     0.00010153    0.00006958    0.00009245
     atom   26 type  4   force =    -0.00010153   -0.00006958   -0.00009245
     atom   27 type  4   force =     0.00010153   -0.00006958   -0.00009245
     atom   28 type  4   force =    -0.00010153    0.00006958    0.00009245

     Total force =     0.001178     Total SCF correction =     0.000022


     Computing stress (Cartesian axis) and pressure


     negative rho (up, down):  0.000E+00 1.657E-03
          total   stress  (Ry/bohr**3)                   (kbar)     P=       -0.04
  -0.00000242   0.00000000   0.00000000           -0.36        0.00        0.00
   0.00000000  -0.00000153   0.00000000            0.00       -0.23        0.00
   0.00000000   0.00000000   0.00000310            0.00        0.00        0.46

     Energy error            =      7.2E-06
     Gradient error          =      3.4E-04
     Cell gradient error     =      3.1E-06


     number of scf cycles    =  18
     number of bfgs steps    =  17

     enthalpy old            =   -2738.4692822662 Ry
     enthalpy new            =   -2738.4692894300 Ry

     CASE: enthalpy_new < enthalpy_old

     new trust radius        =       0.0017287127 bohr
     new conv_thr            =       0.0000000010 Ry

     new unit-cell volume =   2049.13148 a.u.^3 (   303.64996 Ang^3 )
     density =      3.76745 g/cm^3

CELL_PARAMETERS (angstrom)
   4.873715805   0.000000000   0.000000000
   0.000000000  10.464901076   0.000000000
   0.000000000   0.000000000   5.953575917

ATOMIC_POSITIONS (angstrom)
Fe            0.0000000000        0.0000000000       -0.0000000000
Fe            2.4368579023        5.2324505378        0.0000000000
Fe           -0.0000000000       -0.0000000000        2.9767879587
Fe            2.4368579023        5.2324505378        2.9767879587
Mg            0.0545617338        2.8950156557        4.4651819380
Mg            4.8191540708        7.5698854200        1.4883939793
Mg            2.4914196361        2.3374348822        1.4883939793
Mg            2.3822961685        8.1274661935        4.4651819380
Si            0.3587898212        4.2240879335        1.4883939793
Si            4.5149259834        6.2408131422        4.4651819380
Si            2.7956477235        1.0083626044        4.4651819380
Si            2.0780680811        9.4565384713        1.4883939793
O             1.1546650458        1.0395183170        4.4651819380
O             3.7190507588        9.4253827586        1.4883939793
O             3.5915229481        4.1929322208        1.4883939793
O             1.2821928565        6.2719688549        4.4651819380
O             1.4615673538        0.5433600396        1.4883939793
O             3.4121484509        9.9215410360        4.4651819380
O             3.8984252561        4.6890904982        4.4651819380
O             0.9752905485        5.7758105775        1.4883939793
O             1.0866870668        3.5039629286        2.7857967677
O             3.7870287379        6.9609381470        3.1677791496
O             3.5235449691        1.7284876092        3.1677791496
O             1.3501708356        8.7364134665        2.7857967677
O             3.7870287379        6.9609381470        5.7625847264
O             1.0866870668        3.5039629286        0.1909911909
O             1.3501708356        8.7364134665        0.1909911909
O             3.5235449691        1.7284876092        5.7625847264



     Writing output data file ./out/oliv.save/
     NEW-OLD atomic charge density approx. for the potential

     Check: negative core charge=   -0.000006

     negative rho (up, down):  0.000E+00 1.657E-03
     extrapolated charge  216.00865, renormalised to  216.00000
     Generating pointlists ...

     total cpu time spent up to now is    14977.1 secs

     Self-consistent Calculation

     iteration #  1     ecut=    60.00 Ry     beta= 0.30
     Davidson diagonalization with overlap
     ethr =  1.00E-06,  avg # of iterations =  2.0

     Threshold (ethr) on eigenvalues was too large:
     Diagonalizing with lowered threshold

     Davidson diagonalization with overlap
     ethr =  5.71E-09,  avg # of iterations =  7.4

     negative rho (up, down):  0.000E+00 1.657E-03

     total cpu time spent up to now is    15111.3 secs

     total energy              =   -2738.46928833 Ry
     estimated scf accuracy    <       0.00000550 Ry

     total magnetization       =    16.00 Bohr mag/cell
     absolute magnetization    =    16.14 Bohr mag/cell

     iteration #  2     ecut=    60.00 Ry     beta= 0.30
     Davidson diagonalization with overlap
     ethr =  2.54E-09,  avg # of iterations =  4.5

     negative rho (up, down):  0.000E+00 1.657E-03

     total cpu time spent up to now is    15152.1 secs

     total energy              =   -2738.46929231 Ry
     estimated scf accuracy    <       0.00000714 Ry

     total magnetization       =    16.00 Bohr mag/cell
     absolute magnetization    =    16.14 Bohr mag/cell

     iteration #  3     ecut=    60.00 Ry     beta= 0.30
     Davidson diagonalization with overlap
     ethr =  2.54E-09,  avg # of iterations =  2.0

     negative rho (up, down):  0.000E+00 1.657E-03

     total cpu time spent up to now is    15178.4 secs

     total energy              =   -2738.46929216 Ry
     estimated scf accuracy    <       0.00000204 Ry

     total magnetization       =    16.00 Bohr mag/cell
     absolute magnetization    =    16.14 Bohr mag/cell

     iteration #  4     ecut=    60.00 Ry     beta= 0.30
     Davidson diagonalization with overlap
     ethr =  9.43E-10,  avg # of iterations =  3.2

     negative rho (up, down):  0.000E+00 1.657E-03

     total cpu time spent up to now is    15206.9 secs

     total energy              =   -2738.46929233 Ry
     estimated scf accuracy    <       0.00000029 Ry

     total magnetization       =    16.00 Bohr mag/cell
     absolute magnetization    =    16.14 Bohr mag/cell

     iteration #  5     ecut=    60.00 Ry     beta= 0.30
     Davidson diagonalization with overlap
     ethr =  1.33E-10,  avg # of iterations =  7.5

     negative rho (up, down):  0.000E+00 1.657E-03

     total cpu time spent up to now is    15255.1 secs

     total energy              =   -2738.46929251 Ry
     estimated scf accuracy    <       0.00000015 Ry

     total magnetization       =    16.00 Bohr mag/cell
     absolute magnetization    =    16.14 Bohr mag/cell

     iteration #  6     ecut=    60.00 Ry     beta= 0.30
     Davidson diagonalization with overlap
     ethr =  6.72E-11,  avg # of iterations =  3.6

     negative rho (up, down):  0.000E+00 1.657E-03

     total cpu time spent up to now is    15290.7 secs

     total energy              =   -2738.46929251 Ry
     estimated scf accuracy    <       0.00000003 Ry

     total magnetization       =    16.00 Bohr mag/cell
     absolute magnetization    =    16.14 Bohr mag/cell

     iteration #  7     ecut=    60.00 Ry     beta= 0.30
     Davidson diagonalization with overlap
     ethr =  1.45E-11,  avg # of iterations =  5.4

     negative rho (up, down):  0.000E+00 1.657E-03

     total cpu time spent up to now is    15340.6 secs

     total energy              =   -2738.46929253 Ry
     estimated scf accuracy    <       0.00000004 Ry

     total magnetization       =    16.00 Bohr mag/cell
     absolute magnetization    =    16.14 Bohr mag/cell

     iteration #  8     ecut=    60.00 Ry     beta= 0.30
     Davidson diagonalization with overlap
     ethr =  1.45E-11,  avg # of iterations =  2.0

     negative rho (up, down):  0.000E+00 1.657E-03

     total cpu time spent up to now is    15374.0 secs

     total energy              =   -2738.46929253 Ry
     estimated scf accuracy    <          6.3E-09 Ry

     total magnetization       =    16.00 Bohr mag/cell
     absolute magnetization    =    16.14 Bohr mag/cell

     iteration #  9     ecut=    60.00 Ry     beta= 0.30
     Davidson diagonalization with overlap
     ethr =  2.91E-12,  avg # of iterations =  5.4

     negative rho (up, down):  0.000E+00 1.657E-03

     total cpu time spent up to now is    15427.0 secs

     total energy              =   -2738.46929253 Ry
     estimated scf accuracy    <          4.0E-09 Ry

     total magnetization       =    16.00 Bohr mag/cell
     absolute magnetization    =    16.14 Bohr mag/cell

     iteration # 10     ecut=    60.00 Ry     beta= 0.30
     Davidson diagonalization with overlap
     ethr =  1.86E-12,  avg # of iterations =  2.1

     negative rho (up, down):  0.000E+00 1.657E-03

     Magnetic moment per site:
     atom:    1    charge:   13.3536    magn:    3.3519    constr:    0.0000
     atom:    2    charge:   13.3536    magn:    3.3519    constr:    0.0000
     atom:    3    charge:   13.3536    magn:    3.3519    constr:    0.0000
     atom:    4    charge:   13.3536    magn:    3.3519    constr:    0.0000
     atom:    5    charge:    8.0830    magn:    0.0010    constr:    0.0000
     atom:    6    charge:    8.0830    magn:    0.0010    constr:    0.0000
     atom:    7    charge:    8.0830    magn:    0.0010    constr:    0.0000
     atom:    8    charge:    8.0830    magn:    0.0010    constr:    0.0000
     atom:    9    charge:    0.3884    magn:    0.0014    constr:    0.0000
     atom:   10    charge:    0.3884    magn:    0.0014    constr:    0.0000
     atom:   11    charge:    0.3884    magn:    0.0014    constr:    0.0000
     atom:   12    charge:    0.3884    magn:    0.0014    constr:    0.0000
     atom:   13    charge:    4.0372    magn:    0.0789    constr:    0.0000
     atom:   14    charge:    4.0372    magn:    0.0789    constr:    0.0000
     atom:   15    charge:    4.0372    magn:    0.0789    constr:    0.0000
     atom:   16    charge:    4.0372    magn:    0.0789    constr:    0.0000
     atom:   17    charge:    4.0320    magn:    0.0833    constr:    0.0000
     atom:   18    charge:    4.0320    magn:    0.0833    constr:    0.0000
     atom:   19    charge:    4.0320    magn:    0.0833    constr:    0.0000
     atom:   20    charge:    4.0320    magn:    0.0833    constr:    0.0000
     atom:   21    charge:    4.0358    magn:    0.0446    constr:    0.0000
     atom:   22    charge:    4.0358    magn:    0.0446    constr:    0.0000
     atom:   23    charge:    4.0358    magn:    0.0446    constr:    0.0000
     atom:   24    charge:    4.0358    magn:    0.0446    constr:    0.0000
     atom:   25    charge:    4.0358    magn:    0.0446    constr:    0.0000
     atom:   26    charge:    4.0358    magn:    0.0446    constr:    0.0000
     atom:   27    charge:    4.0358    magn:    0.0446    constr:    0.0000
     atom:   28    charge:    4.0358    magn:    0.0446    constr:    0.0000

     total cpu time spent up to now is    15462.8 secs

     End of self-consistent calculation

 ------ SPIN UP ------------


          k = 0.0000 0.0000 0.0000 ( 15339 PWs)   bands (ev):

   -80.2230 -80.2229 -80.2205 -80.2205 -65.7903 -65.7903 -65.7902 -65.7902
   -46.7878 -46.7878 -46.7825 -46.7825 -46.1607 -46.1606 -46.1574 -46.1573
   -45.9005 -45.9004 -45.8651 -45.8651 -32.5593 -32.5592 -32.5568 -32.5568
   -32.5365 -32.5364 -32.5361 -32.5361 -32.5185 -32.5185 -32.5149 -32.5149
   -12.1403 -11.9219 -11.6370 -11.4807 -10.5772 -10.5490 -10.4988 -10.4432
   -10.3444 -10.2150 -10.1594 -10.1496 -10.1271 -10.0720  -9.9561  -9.8805
     0.2389   0.2992   0.8323   0.9377   0.9889   1.0003   1.6827   1.8843
     1.9270   2.0199   2.2271   2.3222   2.3518   3.1409   3.1473   3.2913
     3.3654   3.4397   3.4726   3.5434   3.6430   3.6994   3.8077   3.8096
     3.8235   3.8572   4.0253   4.0287   4.2245   4.2383   4.3045   4.3932
     4.5410   4.5597   4.5600   4.8063   4.9197   5.0689   5.1389   5.2046
     5.2166   5.2824   5.4698   5.6627   5.7241   5.7876   5.8046   5.8717
     5.9402   5.9616   6.1679   6.2242   6.2377   6.3646   6.8618   6.8741
     6.9384   7.0166   7.2772   7.3253   7.7391   7.9319   7.9540   7.9720
     7.9905   8.1752   8.2338   8.2710  10.8084  12.6005  13.3735  14.6690
    14.8319  15.4536  15.5664  15.5818  15.5840  15.7818  15.8541  16.0124
    16.1039  16.3462

          k = 0.0000 0.0000-0.3993 ( 15392 PWs)   bands (ev):

   -80.2217 -80.2217 -80.2217 -80.2217 -65.7902 -65.7902 -65.7902 -65.7902
   -46.7851 -46.7851 -46.7851 -46.7851 -46.1590 -46.1590 -46.1590 -46.1590
   -45.8829 -45.8829 -45.8829 -45.8829 -32.5580 -32.5580 -32.5580 -32.5580
   -32.5363 -32.5363 -32.5363 -32.5363 -32.5168 -32.5168 -32.5168 -32.5168
   -11.8373 -11.8373 -11.7499 -11.7499 -10.5399 -10.5399 -10.5088 -10.5088
   -10.3311 -10.3311 -10.1682 -10.1682 -10.0230 -10.0230  -9.9514  -9.9514
     0.5897   0.5897   0.6424   0.6424   1.5172   1.5172   1.6341   1.6341
     2.2175   2.2175   2.5823   2.5823   2.7512   2.7512   3.0871   3.0871
     3.1667   3.1667   3.2901   3.2901   3.5707   3.5707   3.8724   3.8724
     3.9397   3.9397   3.9565   3.9565   4.1299   4.1299   4.2302   4.2302
     4.4889   4.4889   4.7355   4.7355   4.8078   4.8078   4.9975   4.9975
     5.0756   5.0756   5.2283   5.2283   5.6057   5.6057   5.6584   5.6584
     6.1862   6.1862   6.2792   6.2792   6.6960   6.6960   6.7547   6.7547
     7.0800   7.0800   7.1479   7.1479   7.8592   7.8592   7.8732   7.8732
     8.0591   8.0591   8.0634   8.0634  12.6939  12.6939  13.7139  13.7139
    14.5476  14.5476  15.8127  15.8127  15.8269  15.8269  16.7258  16.7258
    16.8326  16.8327

          k =-0.4877 0.0000 0.0000 ( 15374 PWs)   bands (ev):

   -80.2230 -80.2230 -80.2205 -80.2205 -65.7902 -65.7902 -65.7902 -65.7902
   -46.7878 -46.7878 -46.7825 -46.7825 -46.1607 -46.1607 -46.1573 -46.1573
   -45.9005 -45.9005 -45.8651 -45.8651 -32.5581 -32.5581 -32.5581 -32.5581
   -32.5363 -32.5363 -32.5363 -32.5363 -32.5167 -32.5167 -32.5167 -32.5167
   -11.7378 -11.7378 -11.4327 -11.4327 -10.9038 -10.9038 -10.6457 -10.6457
   -10.3473 -10.3473 -10.1115 -10.1115 -10.0215 -10.0215  -9.9988  -9.9988
     0.4644   0.4644   0.5983   0.5983   2.0007   2.0007   2.0052   2.0052
     2.3028   2.3028   2.4248   2.4248   2.5486   2.5486   2.7015   2.7015
     2.9383   2.9383   2.9980   2.9980   3.0470   3.0470   3.6140   3.6140
     4.0383   4.0383   4.2121   4.2121   4.2555   4.2555   4.5146   4.5146
     4.6639   4.6639   4.7343   4.7343   4.8565   4.8565   5.0940   5.0940
     5.2439   5.2439   5.6648   5.6648   5.8444   5.8444   6.0304   6.0304
     6.1619   6.1619   6.2984   6.2984   6.3743   6.3743   6.8843   6.8843
     6.9126   6.9126   7.2786   7.2786   7.5405   7.5405   7.9877   7.9877
     8.1727   8.1727   8.2311   8.2311  13.3498  13.3498  14.0444  14.0444
    14.3059  14.3059  14.8293  14.8293  15.0889  15.0889  15.3430  15.3430
    15.9167  15.9167

          k =-0.4877 0.0000-0.3993 ( 15436 PWs)   bands (ev):

   -80.2218 -80.2218 -80.2218 -80.2218 -65.7903 -65.7903 -65.7902 -65.7902
   -46.7851 -46.7851 -46.7851 -46.7851 -46.1590 -46.1590 -46.1590 -46.1590
   -45.8829 -45.8829 -45.8829 -45.8829 -32.5582 -32.5582 -32.5581 -32.5581
   -32.5363 -32.5363 -32.5363 -32.5363 -32.5167 -32.5167 -32.5167 -32.5167
   -11.5898 -11.5898 -11.5488 -11.5488 -10.7827 -10.7827 -10.7685 -10.7685
   -10.3132 -10.3132 -10.2156 -10.2156 -10.0189 -10.0189 -10.0000 -10.0000
     0.6388   0.6388   0.7186   0.7186   1.9603   1.9603   2.2505   2.2505
     2.3767   2.3767   2.4970   2.4970   2.5800   2.5800   2.7068   2.7068
     3.0522   3.0522   3.0622   3.0622   3.4215   3.4215   3.5073   3.5073
     3.6161   3.6161   3.9172   3.9172   4.4012   4.4012   4.5181   4.5181
     4.5992   4.5992   4.6876   4.6876   4.7268   4.7268   4.8973   4.8973
     5.2373   5.2373   5.3570   5.3570   5.5181   5.5181   5.6783   5.6783
     6.2413   6.2413   6.2799   6.2799   6.7617   6.7617   6.7679   6.7679
     7.0536   7.0536   7.0884   7.0884   7.7746   7.7746   7.7980   7.7980
     8.0966   8.0966   8.1033   8.1033  14.2455  14.2455  14.2670  14.2670
    14.8565  14.8565  14.9154  14.9154  15.2580  15.2580  15.4917  15.4917
    16.3161  16.3161

 ------ SPIN DOWN ----------


          k = 0.0000 0.0000 0.0000 ( 15339 PWs)   bands (ev):

   -76.0907 -76.0906 -76.0879 -76.0879 -65.7895 -65.7895 -65.7894 -65.7894
   -42.3794 -42.3794 -42.3720 -42.3720 -42.2036 -42.2036 -42.1981 -42.1981
   -42.1677 -42.1677 -42.1261 -42.1261 -32.5587 -32.5587 -32.5563 -32.5563
   -32.5355 -32.5354 -32.5351 -32.5351 -32.5173 -32.5173 -32.5138 -32.5138
   -12.0161 -11.7899 -11.5240 -11.3584 -10.4198 -10.3814 -10.3368 -10.2758
   -10.2176 -10.0862 -10.0520 -10.0198  -9.9897  -9.9798  -9.8572  -9.7872
     0.4497   0.4625   0.9364   1.0253   1.1225   1.2243   1.9534   1.9789
     2.0278   2.3594   2.4367   2.5287   2.6222   3.2221   3.2942   3.4656
     3.6821   3.8406   3.9780   4.0353   4.0492   4.1075   4.1506   4.1508
     4.1628   4.2667   4.3874   4.4059   4.5476   4.7054   4.7068   4.7756
     4.9192   5.0137   5.0985   5.2105   5.2533   5.2564   5.2998   5.3851
     5.5862   5.7626   5.8810   5.9076   5.9144   5.9162   6.0457   6.0774
     8.8808   8.9199   9.2053   9.2998   9.6219   9.6590   9.8657   9.9705
    10.0174  10.0839  10.3795  10.3911  11.1243  11.1625  11.2056  11.2372
    11.3187  11.3747  11.3774  11.3893  11.4469  13.1089  13.5051  14.8085
    15.0126  15.7306  15.7866  15.8001  15.8695  15.8952  16.0280  16.2497
    16.2755  16.9110

          k = 0.0000 0.0000-0.3993 ( 15392 PWs)   bands (ev):

   -76.0894 -76.0894 -76.0894 -76.0894 -65.7895 -65.7895 -65.7895 -65.7895
   -42.3757 -42.3757 -42.3757 -42.3757 -42.2006 -42.2006 -42.2006 -42.2006
   -42.1474 -42.1474 -42.1474 -42.1474 -32.5575 -32.5575 -32.5575 -32.5575
   -32.5353 -32.5353 -32.5353 -32.5353 -32.5157 -32.5157 -32.5156 -32.5156
   -11.7133 -11.7133 -11.6250 -11.6250 -10.3765 -10.3765 -10.3454 -10.3454
   -10.2162 -10.2162 -10.0431 -10.0431  -9.9204  -9.9204  -9.8398  -9.8398
     0.7446   0.7446   0.8133   0.8133   1.6885   1.6885   1.7551   1.7551
     2.3960   2.3960   2.7938   2.7938   2.9909   2.9909   3.3122   3.3122
     3.5009   3.5009   3.7315   3.7315   3.9842   3.9842   4.1084   4.1084
     4.2842   4.2842   4.3600   4.3600   4.5877   4.5877   4.6190   4.6190
     5.0046   5.0046   5.0133   5.0133   5.2442   5.2442   5.3145   5.3145
     5.3214   5.3214   5.5889   5.5889   5.9284   5.9284   5.9459   5.9459
     9.3726   9.3726   9.4176   9.4176   9.7053   9.7053   9.7094   9.7094
     9.9917   9.9917  10.0682  10.0682  11.1325  11.1325  11.1564  11.1564
    11.3647  11.3647  11.3966  11.3966  13.0353  13.0353  14.1179  14.1179
    14.7442  14.7442  16.0512  16.0512  16.1519  16.1519  17.0043  17.0043
    17.0934  17.0935

          k =-0.4877 0.0000 0.0000 ( 15374 PWs)   bands (ev):

   -76.0908 -76.0908 -76.0879 -76.0879 -65.7895 -65.7895 -65.7895 -65.7895
   -42.3795 -42.3795 -42.3721 -42.3721 -42.2036 -42.2036 -42.1981 -42.1981
   -42.1677 -42.1677 -42.1261 -42.1261 -32.5576 -32.5576 -32.5575 -32.5575
   -32.5353 -32.5353 -32.5353 -32.5353 -32.5156 -32.5156 -32.5156 -32.5156
   -11.6180 -11.6180 -11.3131 -11.3131 -10.7370 -10.7370 -10.4987 -10.4987
   -10.2025 -10.2025  -9.9720  -9.9720  -9.9234  -9.9234  -9.9061  -9.9061
     0.6165   0.6165   0.6822   0.6822   2.1762   2.1762   2.2266   2.2266
     2.5493   2.5493   2.6324   2.6324   2.8608   2.8608   2.9741   2.9741
     3.1876   3.1876   3.2454   3.2454   3.4068   3.4068   3.8430   3.8430
     4.3657   4.3657   4.6273   4.6273   4.8473   4.8473   4.8900   4.8900
     5.0673   5.0673   5.1630   5.1630   5.3885   5.3885   5.4056   5.4056
     5.6914   5.6914   5.8500   5.8500   6.0007   6.0007   6.3511   6.3511
     8.9445   8.9445   9.2125   9.2125   9.6374   9.6374   9.9394   9.9394
    10.1171  10.1171  10.4274  10.4274  10.8943  10.8943  11.1475  11.1475
    11.4499  11.4499  11.4669  11.4669  13.5857  13.5857  14.2433  14.2433
    14.7164  14.7164  15.0048  15.0048  15.2443  15.2443  15.6454  15.6454
    16.4967  16.4967

          k =-0.4877 0.0000-0.3993 ( 15436 PWs)   bands (ev):

   -76.0894 -76.0894 -76.0894 -76.0894 -65.7895 -65.7895 -65.7895 -65.7895
   -42.3757 -42.3757 -42.3757 -42.3757 -42.2006 -42.2006 -42.2006 -42.2006
   -42.1474 -42.1474 -42.1474 -42.1474 -32.5576 -32.5576 -32.5576 -32.5576
   -32.5353 -32.5353 -32.5353 -32.5353 -32.5156 -32.5156 -32.5156 -32.5156
   -11.4687 -11.4687 -11.4260 -11.4260 -10.6239 -10.6239 -10.6160 -10.6160
   -10.1766 -10.1766 -10.0897 -10.0897  -9.9104  -9.9104  -9.8981  -9.8981
     0.7593   0.7593   0.8527   0.8527   2.2751   2.2751   2.5087   2.5087
     2.6360   2.6360   2.7383   2.7383   2.7607   2.7607   2.9449   2.9449
     3.2518   3.2518   3.2726   3.2726   3.6569   3.6569   3.7204   3.7204
     3.8915   3.8915   4.2968   4.2968   4.7805   4.7805   4.8296   4.8296
     4.9503   4.9503   5.3180   5.3180   5.3591   5.3591   5.4452   5.4452
     5.6081   5.6081   5.6961   5.6961   5.8914   5.8914   5.9324   5.9324
     9.3499   9.3499   9.3708   9.3708   9.7629   9.7629   9.7738   9.7738
    10.0306  10.0306  10.0454  10.0454  11.0000  11.0000  11.0101  11.0101
    11.2877  11.2877  11.2900  11.2900  14.6003  14.6003  14.6579  14.6579
    15.2149  15.2149  15.2449  15.2449  15.5111  15.5111  15.8520  15.8520
    16.5156  16.5156

     the Fermi energy is     9.5226 ev

!    total energy              =   -2738.46929253 Ry

     total all-electron energy =    -16515.670203 Ry
     estimated scf accuracy    <          6.5E-10 Ry
     smearing contrib. (-TS)   =      -0.00386390 Ry
     internal energy E=F+TS    =   -2738.46542863 Ry

     The total energy is F=E-TS. E is the sum of the following terms:
     one-electron contribution =   -1243.68138988 Ry
     hartree contribution      =     722.45466523 Ry
     xc contribution           =    -328.22644494 Ry
     ewald contribution        =   -1202.52910744 Ry
     one-center paw contrib.   =    -686.48315161 Ry

     total magnetization       =    16.00 Bohr mag/cell
     absolute magnetization    =    16.14 Bohr mag/cell

     convergence has been achieved in  10 iterations

     negative rho (up, down):  0.000E+00 1.657E-03

     Forces acting on atoms (cartesian axes, Ry/au):

     atom    1 type  1   force =     0.00000000    0.00000000    0.00000000
     atom    2 type  1   force =    -0.00000000    0.00000000   -0.00000000
     atom    3 type  1   force =     0.00000000   -0.00000000    0.00000000
     atom    4 type  1   force =     0.00000000    0.00000000    0.00000000
     atom    5 type  2   force =    -0.00020363   -0.00032441    0.00000000
     atom    6 type  2   force =     0.00020363    0.00032441    0.00000000
     atom    7 type  2   force =    -0.00020363    0.00032441   -0.00000000
     atom    8 type  2   force =     0.00020363   -0.00032441    0.00000000
     atom    9 type  3   force =     0.00007068   -0.00001556    0.00000000
     atom   10 type  3   force =    -0.00007068    0.00001556    0.00000000
     atom   11 type  3   force =     0.00007068    0.00001556   -0.00000000
     atom   12 type  3   force =    -0.00007068   -0.00001556   -0.00000000
     atom   13 type  4   force =    -0.00012495   -0.00002419   -0.00000000
     atom   14 type  4   force =     0.00012495    0.00002419    0.00000000
     atom   15 type  4   force =    -0.00012495    0.00002419    0.00000000
     atom   16 type  4   force =     0.00012495   -0.00002419   -0.00000000
     atom   17 type  4   force =    -0.00003394    0.00000744    0.00000000
     atom   18 type  4   force =     0.00003394   -0.00000744    0.00000000
     atom   19 type  4   force =    -0.00003394   -0.00000744    0.00000000
     atom   20 type  4   force =     0.00003394    0.00000744    0.00000000
     atom   21 type  4   force =    -0.00010215   -0.00013490    0.00005280
     atom   22 type  4   force =     0.00010215    0.00013490   -0.00005280
     atom   23 type  4   force =    -0.00010215    0.00013490   -0.00005280
     atom   24 type  4   force =     0.00010215   -0.00013490    0.00005280
     atom   25 type  4   force =     0.00010215    0.00013490    0.00005280
     atom   26 type  4   force =    -0.00010215   -0.00013490   -0.00005280
     atom   27 type  4   force =     0.00010215   -0.00013490   -0.00005280
     atom   28 type  4   force =    -0.00010215    0.00013490    0.00005280

     Total force =     0.000964     Total SCF correction =     0.000047


     Computing stress (Cartesian axis) and pressure


     negative rho (up, down):  0.000E+00 1.657E-03
          total   stress  (Ry/bohr**3)                   (kbar)     P=       -0.12
  -0.00000285   0.00000000   0.00000000           -0.42        0.00        0.00
   0.00000000  -0.00000067   0.00000000            0.00       -0.10        0.00
   0.00000000   0.00000000   0.00000104            0.00        0.00        0.15

     Energy error            =      3.1E-06
     Gradient error          =      3.2E-04
     Cell gradient error     =      2.9E-06


     number of scf cycles    =  19
     number of bfgs steps    =  18

     enthalpy old            =   -2738.4692894300 Ry
     enthalpy new            =   -2738.4692925303 Ry

     CASE: enthalpy_new < enthalpy_old

     new trust radius        =       0.0013564561 bohr
     new conv_thr            =       0.0000000010 Ry

     new unit-cell volume =   2048.98695 a.u.^3 (   303.62854 Ang^3 )
     density =      3.76771 g/cm^3

CELL_PARAMETERS (angstrom)
   4.873156666   0.000000000   0.000000000
   0.000000000  10.463795817   0.000000000
   0.000000000   0.000000000   5.954467925

ATOMIC_POSITIONS (angstrom)
Fe            0.0000000000        0.0000000000       -0.0000000000
Fe            2.4365783330        5.2318979084        0.0000000000
Fe           -0.0000000000       -0.0000000000        2.9772339627
Fe            2.4365783330        5.2318979084        2.9772339627
Mg            0.0542861236        2.8945688002        4.4658509440
Mg            4.8188705424        7.5692270166        1.4886169813
Mg            2.4908644567        2.3373291082        1.4886169813
Mg            2.3822922094        8.1264667086        4.4658509440
Si            0.3586690470        4.2233174863        1.4886169813
Si            4.5144876191        6.2404783305        4.4658509440
Si            2.7952473800        1.0085804221        4.4658509440
Si            2.0779092860        9.4552153947        1.4886169813
O             1.1542619126        1.0391803182        4.4658509440
O             3.7188947535        9.4246154986        1.4886169813
O             3.5908402457        4.1927175902        1.4886169813
O             1.2823164204        6.2710782266        4.4658509440
O             1.4611801694        0.5430187530        1.4886169813
O             3.4119764967        9.9207770638        4.4658509440
O             3.8977585025        4.6888791554        4.4658509440
O             0.9753981636        5.7749166613        1.4886169813
O             1.0862695091        3.5033301515        2.7862254498
O             3.7868871570        6.9604656653        3.1682424755
O             3.5228478422        1.7285677569        3.1682424755
O             1.3503088239        8.7352280599        2.7862254498
O             3.7868871570        6.9604656653        5.7634594125
O             1.0862695091        3.5033301515        0.1910085128
O             1.3503088239        8.7352280599        0.1910085128
O             3.5228478422        1.7285677569        5.7634594125



     Writing output data file ./out/oliv.save/
     NEW-OLD atomic charge density approx. for the potential

     Check: negative core charge=   -0.000006

     negative rho (up, down):  0.000E+00 1.657E-03
     extrapolated charge  215.98476, renormalised to  216.00000
     Generating pointlists ...

     total cpu time spent up to now is    15506.6 secs

     Self-consistent Calculation

     iteration #  1     ecut=    60.00 Ry     beta= 0.30
     Davidson diagonalization with overlap
     ethr =  1.00E-06,  avg # of iterations =  2.0

     Threshold (ethr) on eigenvalues was too large:
     Diagonalizing with lowered threshold

     Davidson diagonalization with overlap
     ethr =  1.05E-08,  avg # of iterations =  5.8

     negative rho (up, down):  0.000E+00 1.656E-03

     total cpu time spent up to now is    15606.3 secs

     total energy              =   -2738.46927944 Ry
     estimated scf accuracy    <       0.00001941 Ry

     total magnetization       =    16.00 Bohr mag/cell
     absolute magnetization    =    16.14 Bohr mag/cell

     iteration #  2     ecut=    60.00 Ry     beta= 0.30
     Davidson diagonalization with overlap
     ethr =  8.99E-09,  avg # of iterations =  4.5

     negative rho (up, down):  0.000E+00 1.656E-03

     total cpu time spent up to now is    15645.4 secs

     total energy              =   -2738.46929374 Ry
     estimated scf accuracy    <       0.00002225 Ry

     total magnetization       =    16.00 Bohr mag/cell
     absolute magnetization    =    16.14 Bohr mag/cell

     iteration #  3     ecut=    60.00 Ry     beta= 0.30
     Davidson diagonalization with overlap
     ethr =  8.99E-09,  avg # of iterations =  2.0

     negative rho (up, down):  0.000E+00 1.656E-03

     total cpu time spent up to now is    15675.7 secs

     total energy              =   -2738.46929416 Ry
     estimated scf accuracy    <       0.00000516 Ry

     total magnetization       =    16.00 Bohr mag/cell
     absolute magnetization    =    16.14 Bohr mag/cell

     iteration #  4     ecut=    60.00 Ry     beta= 0.30
     Davidson diagonalization with overlap
     ethr =  2.39E-09,  avg # of iterations =  3.2

     negative rho (up, down):  0.000E+00 1.657E-03

     total cpu time spent up to now is    15708.9 secs

     total energy              =   -2738.46929412 Ry
     estimated scf accuracy    <       0.00000139 Ry

     total magnetization       =    16.00 Bohr mag/cell
     absolute magnetization    =    16.14 Bohr mag/cell

     iteration #  5     ecut=    60.00 Ry     beta= 0.30
     Davidson diagonalization with overlap
     ethr =  6.46E-10,  avg # of iterations =  5.4

     negative rho (up, down):  0.000E+00 1.657E-03

     total cpu time spent up to now is    15753.6 secs

     total energy              =   -2738.46929461 Ry
     estimated scf accuracy    <       0.00000003 Ry

     total magnetization       =    16.00 Bohr mag/cell
     absolute magnetization    =    16.14 Bohr mag/cell

     iteration #  6     ecut=    60.00 Ry     beta= 0.30
     Davidson diagonalization with overlap
     ethr =  1.20E-11,  avg # of iterations = 13.1

     negative rho (up, down):  0.000E+00 1.657E-03

     total cpu time spent up to now is    15838.8 secs

     total energy              =   -2738.46929467 Ry
     estimated scf accuracy    <       0.00000010 Ry

     total magnetization       =    16.00 Bohr mag/cell
     absolute magnetization    =    16.14 Bohr mag/cell

     iteration #  7     ecut=    60.00 Ry     beta= 0.30
     Davidson diagonalization with overlap
     ethr =  1.20E-11,  avg # of iterations =  4.2

     negative rho (up, down):  0.000E+00 1.657E-03

     total cpu time spent up to now is    15887.5 secs

     total energy              =   -2738.46929467 Ry
     estimated scf accuracy    <       0.00000002 Ry

     total magnetization       =    16.00 Bohr mag/cell
     absolute magnetization    =    16.14 Bohr mag/cell

     iteration #  8     ecut=    60.00 Ry     beta= 0.30
     Davidson diagonalization with overlap
     ethr =  9.92E-12,  avg # of iterations =  5.1

     negative rho (up, down):  0.000E+00 1.657E-03

     total cpu time spent up to now is    15928.6 secs

     total energy              =   -2738.46929468 Ry
     estimated scf accuracy    <       0.00000001 Ry

     total magnetization       =    16.00 Bohr mag/cell
     absolute magnetization    =    16.14 Bohr mag/cell

     iteration #  9     ecut=    60.00 Ry     beta= 0.30
     Davidson diagonalization with overlap
     ethr =  4.88E-12,  avg # of iterations =  2.4

     negative rho (up, down):  0.000E+00 1.657E-03

     Magnetic moment per site:
     atom:    1    charge:   13.3536    magn:    3.3519    constr:    0.0000
     atom:    2    charge:   13.3536    magn:    3.3519    constr:    0.0000
     atom:    3    charge:   13.3536    magn:    3.3519    constr:    0.0000
     atom:    4    charge:   13.3536    magn:    3.3519    constr:    0.0000
     atom:    5    charge:    8.0831    magn:    0.0010    constr:    0.0000
     atom:    6    charge:    8.0831    magn:    0.0010    constr:    0.0000
     atom:    7    charge:    8.0831    magn:    0.0010    constr:    0.0000
     atom:    8    charge:    8.0831    magn:    0.0010    constr:    0.0000
     atom:    9    charge:    0.3884    magn:    0.0014    constr:    0.0000
     atom:   10    charge:    0.3884    magn:    0.0014    constr:    0.0000
     atom:   11    charge:    0.3884    magn:    0.0014    constr:    0.0000
     atom:   12    charge:    0.3884    magn:    0.0014    constr:    0.0000
     atom:   13    charge:    4.0373    magn:    0.0789    constr:    0.0000
     atom:   14    charge:    4.0373    magn:    0.0789    constr:    0.0000
     atom:   15    charge:    4.0373    magn:    0.0789    constr:    0.0000
     atom:   16    charge:    4.0373    magn:    0.0789    constr:    0.0000
     atom:   17    charge:    4.0321    magn:    0.0833    constr:    0.0000
     atom:   18    charge:    4.0321    magn:    0.0833    constr:    0.0000
     atom:   19    charge:    4.0321    magn:    0.0833    constr:    0.0000
     atom:   20    charge:    4.0321    magn:    0.0833    constr:    0.0000
     atom:   21    charge:    4.0358    magn:    0.0446    constr:    0.0000
     atom:   22    charge:    4.0358    magn:    0.0446    constr:    0.0000
     atom:   23    charge:    4.0358    magn:    0.0446    constr:    0.0000
     atom:   24    charge:    4.0358    magn:    0.0446    constr:    0.0000
     atom:   25    charge:    4.0358    magn:    0.0446    constr:    0.0000
     atom:   26    charge:    4.0358    magn:    0.0446    constr:    0.0000
     atom:   27    charge:    4.0358    magn:    0.0446    constr:    0.0000
     atom:   28    charge:    4.0358    magn:    0.0446    constr:    0.0000

     total cpu time spent up to now is    15963.5 secs

     End of self-consistent calculation

 ------ SPIN UP ------------


          k = 0.0000 0.0000 0.0000 ( 15339 PWs)   bands (ev):

   -80.2213 -80.2212 -80.2188 -80.2188 -65.7895 -65.7895 -65.7894 -65.7894
   -46.7862 -46.7862 -46.7808 -46.7808 -46.1589 -46.1589 -46.1556 -46.1555
   -45.8988 -45.8988 -45.8635 -45.8635 -32.5586 -32.5585 -32.5561 -32.5561
   -32.5357 -32.5357 -32.5354 -32.5354 -32.5176 -32.5176 -32.5141 -32.5141
   -12.1399 -11.9213 -11.6368 -11.4804 -10.5765 -10.5480 -10.4983 -10.4427
   -10.3439 -10.2139 -10.1585 -10.1494 -10.1260 -10.0719  -9.9556  -9.8800
     0.2393   0.3000   0.8330   0.9384   0.9893   1.0009   1.6833   1.8847
     1.9273   2.0208   2.2280   2.3233   2.3523   3.1421   3.1479   3.2914
     3.3655   3.4410   3.4741   3.5445   3.6434   3.7004   3.8073   3.8102
     3.8252   3.8581   4.0257   4.0293   4.2246   4.2394   4.3057   4.3930
     4.5410   4.5601   4.5616   4.8070   4.9207   5.0701   5.1401   5.2049
     5.2168   5.2827   5.4712   5.6622   5.7251   5.7891   5.8043   5.8719
     5.9424   5.9638   6.1688   6.2258   6.2393   6.3657   6.8626   6.8748
     6.9407   7.0188   7.2783   7.3264   7.7406   7.9339   7.9554   7.9740
     7.9924   8.1765   8.2362   8.2731  10.8099  12.6027  13.3739  14.6704
    14.8344  15.4564  15.5690  15.5821  15.5852  15.7825  15.8550  16.0148
    16.1051  16.3472

          k = 0.0000 0.0000-0.3992 ( 15392 PWs)   bands (ev):

   -80.2201 -80.2201 -80.2201 -80.2201 -65.7895 -65.7895 -65.7895 -65.7895
   -46.7835 -46.7835 -46.7835 -46.7835 -46.1572 -46.1572 -46.1572 -46.1572
   -45.8813 -45.8813 -45.8813 -45.8813 -32.5573 -32.5573 -32.5573 -32.5573
   -32.5355 -32.5355 -32.5355 -32.5355 -32.5159 -32.5159 -32.5159 -32.5159
   -11.8369 -11.8369 -11.7495 -11.7495 -10.5391 -10.5391 -10.5082 -10.5082
   -10.3305 -10.3305 -10.1672 -10.1672 -10.0227 -10.0227  -9.9508  -9.9508
     0.5904   0.5904   0.6429   0.6429   1.5178   1.5178   1.6346   1.6346
     2.2178   2.2178   2.5827   2.5827   2.7517   2.7517   3.0876   3.0876
     3.1671   3.1671   3.2908   3.2908   3.5719   3.5719   3.8728   3.8728
     3.9401   3.9401   3.9570   3.9570   4.1307   4.1307   4.2306   4.2306
     4.4901   4.4901   4.7362   4.7362   4.8085   4.8085   4.9986   4.9986
     5.0768   5.0768   5.2296   5.2296   5.6064   5.6064   5.6595   5.6595
     6.1875   6.1875   6.2806   6.2806   6.6976   6.6976   6.7561   6.7561
     7.0816   7.0816   7.1496   7.1496   7.8612   7.8612   7.8753   7.8753
     8.0605   8.0605   8.0649   8.0649  12.6954  12.6954  13.7160  13.7160
    14.5482  14.5482  15.8152  15.8152  15.8302  15.8302  16.7270  16.7270
    16.8328  16.8328

          k =-0.4878 0.0000 0.0000 ( 15374 PWs)   bands (ev):

   -80.2213 -80.2213 -80.2188 -80.2188 -65.7895 -65.7895 -65.7895 -65.7895
   -46.7862 -46.7862 -46.7809 -46.7809 -46.1589 -46.1589 -46.1555 -46.1555
   -45.8989 -45.8989 -45.8635 -45.8635 -32.5574 -32.5574 -32.5574 -32.5574
   -32.5355 -32.5355 -32.5355 -32.5355 -32.5159 -32.5159 -32.5159 -32.5159
   -11.7370 -11.7370 -11.4321 -11.4321 -10.9035 -10.9035 -10.6454 -10.6454
   -10.3464 -10.3464 -10.1105 -10.1105 -10.0212 -10.0212  -9.9985  -9.9985
     0.4648   0.4648   0.5987   0.5987   2.0014   2.0014   2.0058   2.0058
     2.3036   2.3036   2.4259   2.4259   2.5491   2.5491   2.7024   2.7024
     2.9393   2.9393   2.9990   2.9990   3.0471   3.0471   3.6150   3.6150
     4.0393   4.0393   4.2128   4.2128   4.2556   4.2556   4.5157   4.5157
     4.6639   4.6639   4.7357   4.7357   4.8569   4.8569   5.0954   5.0954
     5.2441   5.2441   5.6663   5.6663   5.8445   5.8445   6.0325   6.0325
     6.1623   6.1623   6.2993   6.2993   6.3758   6.3758   6.8864   6.8864
     6.9131   6.9131   7.2797   7.2797   7.5420   7.5420   7.9902   7.9902
     8.1744   8.1744   8.2323   8.2323  13.3512  13.3512  14.0452  14.0452
    14.3083  14.3083  14.8320  14.8320  15.0893  15.0893  15.3440  15.3440
    15.9189  15.9189

          k =-0.4878 0.0000-0.3992 ( 15436 PWs)   bands (ev):

   -80.2201 -80.2201 -80.2201 -80.2201 -65.7895 -65.7895 -65.7895 -65.7895
   -46.7835 -46.7835 -46.7835 -46.7835 -46.1572 -46.1572 -46.1572 -46.1572
   -45.8813 -45.8813 -45.8813 -45.8813 -32.5574 -32.5574 -32.5574 -32.5574
   -32.5355 -32.5355 -32.5355 -32.5355 -32.5159 -32.5159 -32.5159 -32.5159
   -11.5891 -11.5891 -11.5481 -11.5481 -10.7825 -10.7825 -10.7683 -10.7683
   -10.3122 -10.3122 -10.2146 -10.2146 -10.0184 -10.0184  -9.9996  -9.9996
     0.6392   0.6392   0.7189   0.7189   1.9607   1.9607   2.2512   2.2512
     2.3773   2.3773   2.4974   2.4974   2.5806   2.5806   2.7077   2.7077
     3.0527   3.0527   3.0626   3.0626   3.4221   3.4221   3.5078   3.5078
     3.6167   3.6167   3.9180   3.9180   4.4020   4.4020   4.5186   4.5186
     4.5999   4.5999   4.6888   4.6888   4.7279   4.7279   4.8988   4.8988
     5.2381   5.2381   5.3584   5.3584   5.5187   5.5187   5.6793   5.6793
     6.2427   6.2427   6.2813   6.2813   6.7631   6.7631   6.7694   6.7694
     7.0551   7.0551   7.0901   7.0901   7.7764   7.7764   7.7999   7.7999
     8.0981   8.0981   8.1049   8.1049  14.2466  14.2466  14.2690  14.2690
    14.8593  14.8593  14.9181  14.9181  15.2589  15.2589  15.4928  15.4928
    16.3173  16.3173

 ------ SPIN DOWN ----------


          k = 0.0000 0.0000 0.0000 ( 15339 PWs)   bands (ev):

   -76.0891 -76.0889 -76.0863 -76.0862 -65.7887 -65.7887 -65.7886 -65.7886
   -42.3778 -42.3778 -42.3704 -42.3704 -42.2020 -42.2020 -42.1965 -42.1965
   -42.1659 -42.1659 -42.1244 -42.1244 -32.5580 -32.5580 -32.5556 -32.5556
   -32.5347 -32.5346 -32.5343 -32.5343 -32.5165 -32.5165 -32.5130 -32.5129
   -12.0156 -11.7893 -11.5237 -11.3581 -10.4191 -10.3804 -10.3364 -10.2754
   -10.2170 -10.0851 -10.0519 -10.0189  -9.9887  -9.9797  -9.8567  -9.7867
     0.4502   0.4634   0.9371   1.0261   1.1227   1.2249   1.9538   1.9795
     2.0281   2.3603   2.4372   2.5295   2.6233   3.2233   3.2947   3.4657
     3.6832   3.8407   3.9796   4.0356   4.0501   4.1087   4.1514   4.1521
     4.1633   4.2676   4.3882   4.4061   4.5483   4.7062   4.7069   4.7754
     4.9186   5.0145   5.0994   5.2117   5.2544   5.2562   5.3012   5.3854
     5.5876   5.7620   5.8807   5.9091   5.9142   5.9171   6.0460   6.0777
     8.8830   8.9221   9.2076   9.3021   9.6229   9.6601   9.8668   9.9717
    10.0190  10.0856  10.3808  10.3922  11.1261  11.1640  11.2079  11.2393
    11.3204  11.3768  11.3796  11.3911  11.4485  13.1108  13.5054  14.8097
    15.0148  15.7336  15.7869  15.8027  15.8707  15.8962  16.0275  16.2528
    16.2769  16.9115

          k = 0.0000 0.0000-0.3992 ( 15392 PWs)   bands (ev):

   -76.0877 -76.0877 -76.0877 -76.0877 -65.7887 -65.7887 -65.7887 -65.7887
   -42.3741 -42.3741 -42.3741 -42.3741 -42.1990 -42.1990 -42.1990 -42.1990
   -42.1457 -42.1457 -42.1457 -42.1457 -32.5568 -32.5568 -32.5568 -32.5568
   -32.5345 -32.5345 -32.5345 -32.5345 -32.5148 -32.5148 -32.5148 -32.5148
   -11.7129 -11.7129 -11.6246 -11.6246 -10.3758 -10.3758 -10.3448 -10.3448
   -10.2157 -10.2157 -10.0421 -10.0421  -9.9200  -9.9200  -9.8392  -9.8392
     0.7454   0.7454   0.8138   0.8138   1.6890   1.6890   1.7555   1.7555
     2.3962   2.3962   2.7941   2.7941   2.9915   2.9915   3.3126   3.3126
     3.5014   3.5014   3.7324   3.7324   3.9856   3.9856   4.1088   4.1088
     4.2847   4.2847   4.3601   4.3601   4.5880   4.5880   4.6192   4.6192
     5.0056   5.0056   5.0138   5.0138   5.2450   5.2450   5.3157   5.3157
     5.3226   5.3226   5.5897   5.5897   5.9293   5.9293   5.9467   5.9467
     9.3742   9.3742   9.4191   9.4191   9.7072   9.7072   9.7113   9.7113
     9.9932   9.9932  10.0698  10.0698  11.1347  11.1347  11.1584  11.1584
    11.3663  11.3663  11.3983  11.3983  13.0369  13.0369  14.1198  14.1198
    14.7448  14.7448  16.0532  16.0532  16.1551  16.1551  17.0053  17.0053
    17.0939  17.0940

          k =-0.4878 0.0000 0.0000 ( 15374 PWs)   bands (ev):

   -76.0891 -76.0891 -76.0862 -76.0862 -65.7887 -65.7887 -65.7887 -65.7887
   -42.3779 -42.3779 -42.3704 -42.3704 -42.2020 -42.2020 -42.1965 -42.1965
   -42.1660 -42.1660 -42.1244 -42.1244 -32.5569 -32.5569 -32.5568 -32.5568
   -32.5345 -32.5345 -32.5345 -32.5345 -32.5148 -32.5148 -32.5147 -32.5147
   -11.6172 -11.6172 -11.3125 -11.3125 -10.7368 -10.7368 -10.4985 -10.4985
   -10.2016 -10.2016  -9.9710  -9.9710  -9.9230  -9.9230  -9.9058  -9.9058
     0.6169   0.6169   0.6825   0.6825   2.1770   2.1770   2.2273   2.2273
     2.5504   2.5504   2.6330   2.6330   2.8612   2.8612   2.9750   2.9750
     3.1886   3.1886   3.2463   3.2463   3.4070   3.4070   3.8440   3.8440
     4.3662   4.3662   4.6273   4.6273   4.8473   4.8473   4.8915   4.8915
     5.0684   5.0684   5.1630   5.1630   5.3899   5.3899   5.4062   5.4062
     5.6911   5.6911   5.8514   5.8514   6.0007   6.0007   6.3516   6.3516
     8.9466   8.9466   9.2148   9.2148   9.6384   9.6384   9.9407   9.9407
    10.1188  10.1188  10.4285  10.4285  10.8961  10.8961  11.1499  11.1499
    11.4518  11.4518  11.4682  11.4682  13.5869  13.5869  14.2443  14.2443
    14.7184  14.7184  15.0075  15.0075  15.2450  15.2450  15.6462  15.6462
    16.4978  16.4978

          k =-0.4878 0.0000-0.3992 ( 15436 PWs)   bands (ev):

   -76.0878 -76.0878 -76.0878 -76.0878 -65.7887 -65.7887 -65.7887 -65.7887
   -42.3741 -42.3741 -42.3741 -42.3741 -42.1990 -42.1990 -42.1990 -42.1990
   -42.1457 -42.1457 -42.1457 -42.1457 -32.5569 -32.5569 -32.5569 -32.5569
   -32.5345 -32.5345 -32.5345 -32.5345 -32.5148 -32.5148 -32.5147 -32.5147
   -11.4681 -11.4681 -11.4253 -11.4253 -10.6237 -10.6237 -10.6158 -10.6158
   -10.1757 -10.1757 -10.0888 -10.0888  -9.9098  -9.9098  -9.8976  -9.8976
     0.7597   0.7597   0.8530   0.8530   2.2754   2.2754   2.5093   2.5093
     2.6365   2.6365   2.7390   2.7390   2.7612   2.7612   2.9458   2.9458
     3.2524   3.2524   3.2730   3.2730   3.6575   3.6575   3.7209   3.7209
     3.8921   3.8921   4.2976   4.2976   4.7811   4.7811   4.8305   4.8305
     4.9506   4.9506   5.3189   5.3189   5.3602   5.3602   5.4466   5.4466
     5.6088   5.6088   5.6971   5.6971   5.8921   5.8921   5.9331   5.9331
     9.3514   9.3514   9.3723   9.3723   9.7647   9.7647   9.7756   9.7756
    10.0322  10.0322  10.0469  10.0469  11.0020  11.0020  11.0121  11.0121
    11.2894  11.2894  11.2917  11.2917  14.6009  14.6009  14.6597  14.6597
    15.2178  15.2178  15.2476  15.2476  15.5120  15.5120  15.8535  15.8535
    16.5167  16.5167

     the Fermi energy is     9.5240 ev

!    total energy              =   -2738.46929468 Ry

     total all-electron energy =    -16515.670205 Ry
     estimated scf accuracy    <          7.5E-10 Ry
     smearing contrib. (-TS)   =      -0.00386905 Ry
     internal energy E=F+TS    =   -2738.46542563 Ry

     The total energy is F=E-TS. E is the sum of the following terms:
     one-electron contribution =   -1243.61797805 Ry
     hartree contribution      =     722.43110337 Ry
     xc contribution           =    -328.22763517 Ry
     ewald contribution        =   -1202.56774467 Ry
     one-center paw contrib.   =    -686.48317111 Ry

     total magnetization       =    16.00 Bohr mag/cell
     absolute magnetization    =    16.14 Bohr mag/cell

     convergence has been achieved in   9 iterations

     negative rho (up, down):  0.000E+00 1.657E-03

     Forces acting on atoms (cartesian axes, Ry/au):

     atom    1 type  1   force =     0.00000000    0.00000000    0.00000000
     atom    2 type  1   force =    -0.00000000    0.00000000   -0.00000000
     atom    3 type  1   force =     0.00000000    0.00000000    0.00000000
     atom    4 type  1   force =     0.00000000   -0.00000000    0.00000000
     atom    5 type  2   force =    -0.00018467   -0.00022316    0.00000000
     atom    6 type  2   force =     0.00018467    0.00022316   -0.00000000
     atom    7 type  2   force =    -0.00018467    0.00022316    0.00000000
     atom    8 type  2   force =     0.00018467   -0.00022316    0.00000000
     atom    9 type  3   force =     0.00001171    0.00009657    0.00000000
     atom   10 type  3   force =    -0.00001171   -0.00009657    0.00000000
     atom   11 type  3   force =     0.00001171   -0.00009657   -0.00000000
     atom   12 type  3   force =    -0.00001171    0.00009657   -0.00000000
     atom   13 type  4   force =    -0.00009385    0.00004241   -0.00000000
     atom   14 type  4   force =     0.00009385   -0.00004241   -0.00000000
     atom   15 type  4   force =    -0.00009385   -0.00004241    0.00000000
     atom   16 type  4   force =     0.00009385    0.00004241   -0.00000000
     atom   17 type  4   force =     0.00000059    0.00012658    0.00000000
     atom   18 type  4   force =    -0.00000059   -0.00012658    0.00000000
     atom   19 type  4   force =     0.00000059   -0.00012658    0.00000000
     atom   20 type  4   force =    -0.00000059    0.00012658    0.00000000
     atom   21 type  4   force =    -0.00008650   -0.00015797   -0.00001837
     atom   22 type  4   force =     0.00008650    0.00015797    0.00001837
     atom   23 type  4   force =    -0.00008650    0.00015797    0.00001837
     atom   24 type  4   force =     0.00008650   -0.00015797   -0.00001837
     atom   25 type  4   force =     0.00008650    0.00015797   -0.00001837
     atom   26 type  4   force =    -0.00008650   -0.00015797    0.00001837
     atom   27 type  4   force =     0.00008650   -0.00015797    0.00001837
     atom   28 type  4   force =    -0.00008650    0.00015797   -0.00001837

     Total force =     0.000862     Total SCF correction =     0.000048


     Computing stress (Cartesian axis) and pressure


     negative rho (up, down):  0.000E+00 1.657E-03
          total   stress  (Ry/bohr**3)                   (kbar)     P=       -0.00
  -0.00000092   0.00000000   0.00000000           -0.13        0.00        0.00
   0.00000000   0.00000093   0.00000000            0.00        0.14        0.00
   0.00000000   0.00000000  -0.00000010            0.00        0.00       -0.01

     Energy error            =      2.2E-06
     Gradient error          =      2.2E-04
     Cell gradient error     =      9.3E-07


     number of scf cycles    =  20
     number of bfgs steps    =  19

     enthalpy old            =   -2738.4692925303 Ry
     enthalpy new            =   -2738.4692946818 Ry

     CASE: enthalpy_new < enthalpy_old

     new trust radius        =       0.0008340242 bohr
     new conv_thr            =       0.0000000010 Ry

     new unit-cell volume =   2048.88006 a.u.^3 (   303.61270 Ang^3 )
     density =      3.76791 g/cm^3

CELL_PARAMETERS (angstrom)
   4.872707725   0.000000000   0.000000000
   0.000000000  10.463438382   0.000000000
   0.000000000   0.000000000   5.954909300

ATOMIC_POSITIONS (angstrom)
Fe            0.0000000000        0.0000000000        0.0000000000
Fe            2.4363538625        5.2317191912        0.0000000000
Fe           -0.0000000000       -0.0000000000        2.9774546500
Fe            2.4363538625        5.2317191912        2.9774546500
Mg            0.0539766245        2.8941672610        4.4661819750
Mg            4.8187311004        7.5692711215        1.4887273250
Mg            2.4903304870        2.3375519302        1.4887273250
Mg            2.3823772379        8.1258864522        4.4661819750
Si            0.3586051965        4.2230226745        1.4887273250
Si            4.5141025284        6.2404157080        4.4661819750
Si            2.7949590590        1.0086965167        4.4661819750
Si            2.0777486659        9.4547418658        1.4887273250
O             1.1539231570        1.0390762447        4.4661819750
O             3.7187845680        9.4243621378        1.4887273250
O             3.5902770195        4.1926429466        1.4887273250
O             1.2824307055        6.2707954359        4.4661819750
O             1.4609369193        0.5429117503        1.4887273250
O             3.4117708057        9.9205266322        4.4661819750
O             3.8972907817        4.6888074410        4.4661819750
O             0.9754169432        5.7746309415        1.4887273250
O             1.0859262802        3.5029425329        2.7864369644
O             3.7867814448        6.9604958496        3.1684723356
O             3.5222801427        1.7287766583        3.1684723356
O             1.3504275823        8.7346617242        2.7864369644
O             3.7867814448        6.9604958496        5.7638916145
O             1.0859262802        3.5029425329        0.1910176856
O             1.3504275823        8.7346617242        0.1910176856
O             3.5222801427        1.7287766583        5.7638916145



     Writing output data file ./out/oliv.save/
     NEW-OLD atomic charge density approx. for the potential

     Check: negative core charge=   -0.000006

     negative rho (up, down):  0.000E+00 1.657E-03
     extrapolated charge  215.98873, renormalised to  216.00000
     Generating pointlists ...

     total cpu time spent up to now is    15998.7 secs

     Self-consistent Calculation

     iteration #  1     ecut=    60.00 Ry     beta= 0.30
     Davidson diagonalization with overlap
     ethr =  1.00E-06,  avg # of iterations =  2.0

     Threshold (ethr) on eigenvalues was too large:
     Diagonalizing with lowered threshold

     Davidson diagonalization with overlap
     ethr =  5.15E-09,  avg # of iterations =  6.8

     negative rho (up, down):  0.000E+00 1.656E-03

     total cpu time spent up to now is    16093.5 secs

     total energy              =   -2738.46928788 Ry
     estimated scf accuracy    <       0.00001026 Ry

     total magnetization       =    16.00 Bohr mag/cell
     absolute magnetization    =    16.14 Bohr mag/cell

     iteration #  2     ecut=    60.00 Ry     beta= 0.30
     Davidson diagonalization with overlap
     ethr =  4.75E-09,  avg # of iterations =  4.5

     negative rho (up, down):  0.000E+00 1.656E-03

     total cpu time spent up to now is    16137.1 secs

     total energy              =   -2738.46929552 Ry
     estimated scf accuracy    <       0.00001215 Ry

     total magnetization       =    16.00 Bohr mag/cell
     absolute magnetization    =    16.14 Bohr mag/cell

     iteration #  3     ecut=    60.00 Ry     beta= 0.30
     Davidson diagonalization with overlap
     ethr =  4.75E-09,  avg # of iterations =  2.0

     negative rho (up, down):  0.000E+00 1.656E-03

     total cpu time spent up to now is    16171.9 secs

     total energy              =   -2738.46929574 Ry
     estimated scf accuracy    <       0.00000287 Ry

     total magnetization       =    16.00 Bohr mag/cell
     absolute magnetization    =    16.14 Bohr mag/cell

     iteration #  4     ecut=    60.00 Ry     beta= 0.30
     Davidson diagonalization with overlap
     ethr =  1.33E-09,  avg # of iterations =  3.1

     negative rho (up, down):  0.000E+00 1.657E-03

     total cpu time spent up to now is    16206.5 secs

     total energy              =   -2738.46929564 Ry
     estimated scf accuracy    <       0.00000084 Ry

     total magnetization       =    16.00 Bohr mag/cell
     absolute magnetization    =    16.14 Bohr mag/cell

     iteration #  5     ecut=    60.00 Ry     beta= 0.30
     Davidson diagonalization with overlap
     ethr =  3.90E-10,  avg # of iterations =  5.6

     negative rho (up, down):  0.000E+00 1.657E-03

     total cpu time spent up to now is    16248.7 secs

     total energy              =   -2738.46929595 Ry
     estimated scf accuracy    <       0.00000002 Ry

     total magnetization       =    16.00 Bohr mag/cell
     absolute magnetization    =    16.14 Bohr mag/cell

     iteration #  6     ecut=    60.00 Ry     beta= 0.30
     Davidson diagonalization with overlap
     ethr =  7.30E-12,  avg # of iterations = 11.6

     negative rho (up, down):  0.000E+00 1.656E-03

     total cpu time spent up to now is    16335.0 secs

     total energy              =   -2738.46929597 Ry
     estimated scf accuracy    <       0.00000004 Ry

     total magnetization       =    16.00 Bohr mag/cell
     absolute magnetization    =    16.14 Bohr mag/cell

     iteration #  7     ecut=    60.00 Ry     beta= 0.30
     Davidson diagonalization with overlap
     ethr =  7.30E-12,  avg # of iterations =  4.1

     negative rho (up, down):  0.000E+00 1.656E-03

     total cpu time spent up to now is    16370.6 secs

     total energy              =   -2738.46929598 Ry
     estimated scf accuracy    <          4.5E-09 Ry

     total magnetization       =    16.00 Bohr mag/cell
     absolute magnetization    =    16.14 Bohr mag/cell

     iteration #  8     ecut=    60.00 Ry     beta= 0.30
     Davidson diagonalization with overlap
     ethr =  2.10E-12,  avg # of iterations =  4.1

     negative rho (up, down):  0.000E+00 1.656E-03

     total cpu time spent up to now is    16411.8 secs

     total energy              =   -2738.46929598 Ry
     estimated scf accuracy    <          7.0E-09 Ry

     total magnetization       =    16.00 Bohr mag/cell
     absolute magnetization    =    16.14 Bohr mag/cell

     iteration #  9     ecut=    60.00 Ry     beta= 0.30
     Davidson diagonalization with overlap
     ethr =  2.10E-12,  avg # of iterations =  3.8

     negative rho (up, down):  0.000E+00 1.656E-03

     Magnetic moment per site:
     atom:    1    charge:   13.3537    magn:    3.3519    constr:    0.0000
     atom:    2    charge:   13.3537    magn:    3.3519    constr:    0.0000
     atom:    3    charge:   13.3537    magn:    3.3519    constr:    0.0000
     atom:    4    charge:   13.3537    magn:    3.3519    constr:    0.0000
     atom:    5    charge:    8.0831    magn:    0.0010    constr:    0.0000
     atom:    6    charge:    8.0831    magn:    0.0010    constr:    0.0000
     atom:    7    charge:    8.0831    magn:    0.0010    constr:    0.0000
     atom:    8    charge:    8.0831    magn:    0.0010    constr:    0.0000
     atom:    9    charge:    0.3884    magn:    0.0014    constr:    0.0000
     atom:   10    charge:    0.3884    magn:    0.0014    constr:    0.0000
     atom:   11    charge:    0.3884    magn:    0.0014    constr:    0.0000
     atom:   12    charge:    0.3884    magn:    0.0014    constr:    0.0000
     atom:   13    charge:    4.0373    magn:    0.0789    constr:    0.0000
     atom:   14    charge:    4.0373    magn:    0.0789    constr:    0.0000
     atom:   15    charge:    4.0373    magn:    0.0789    constr:    0.0000
     atom:   16    charge:    4.0373    magn:    0.0789    constr:    0.0000
     atom:   17    charge:    4.0321    magn:    0.0833    constr:    0.0000
     atom:   18    charge:    4.0321    magn:    0.0833    constr:    0.0000
     atom:   19    charge:    4.0321    magn:    0.0833    constr:    0.0000
     atom:   20    charge:    4.0321    magn:    0.0833    constr:    0.0000
     atom:   21    charge:    4.0358    magn:    0.0446    constr:    0.0000
     atom:   22    charge:    4.0358    magn:    0.0446    constr:    0.0000
     atom:   23    charge:    4.0358    magn:    0.0446    constr:    0.0000
     atom:   24    charge:    4.0358    magn:    0.0446    constr:    0.0000
     atom:   25    charge:    4.0358    magn:    0.0446    constr:    0.0000
     atom:   26    charge:    4.0358    magn:    0.0446    constr:    0.0000
     atom:   27    charge:    4.0358    magn:    0.0446    constr:    0.0000
     atom:   28    charge:    4.0358    magn:    0.0446    constr:    0.0000

     total cpu time spent up to now is    16449.0 secs

     End of self-consistent calculation

 ------ SPIN UP ------------


          k = 0.0000 0.0000 0.0000 ( 15339 PWs)   bands (ev):

   -80.2206 -80.2205 -80.2181 -80.2181 -65.7885 -65.7885 -65.7884 -65.7884
   -46.7855 -46.7855 -46.7802 -46.7802 -46.1581 -46.1580 -46.1548 -46.1547
   -45.8982 -45.8981 -45.8629 -45.8629 -32.5575 -32.5575 -32.5551 -32.5551
   -32.5347 -32.5346 -32.5343 -32.5343 -32.5166 -32.5165 -32.5130 -32.5130
   -12.1394 -11.9206 -11.6364 -11.4799 -10.5759 -10.5473 -10.4979 -10.4423
   -10.3435 -10.2132 -10.1580 -10.1490 -10.1254 -10.0715  -9.9549  -9.8794
     0.2397   0.3006   0.8334   0.9389   0.9896   1.0013   1.6837   1.8850
     1.9276   2.0213   2.2288   2.3239   2.3525   3.1427   3.1484   3.2915
     3.3657   3.4421   3.4753   3.5453   3.6443   3.7009   3.8070   3.8104
     3.8262   3.8589   4.0262   4.0297   4.2249   4.2408   4.3062   4.3927
     4.5411   4.5604   4.5625   4.8072   4.9212   5.0709   5.1408   5.2053
     5.2171   5.2831   5.4724   5.6623   5.7256   5.7899   5.8044   5.8720
     5.9433   5.9647   6.1689   6.2265   6.2400   6.3660   6.8629   6.8751
     6.9419   7.0199   7.2786   7.3268   7.7412   7.9350   7.9558   7.9751
     7.9933   8.1769   8.2374   8.2740  10.8108  12.6038  13.3747  14.6714
    14.8353  15.4574  15.5702  15.5826  15.5864  15.7827  15.8564  16.0161
    16.1062  16.3476

          k = 0.0000 0.0000-0.3992 ( 15392 PWs)   bands (ev):

   -80.2193 -80.2193 -80.2193 -80.2193 -65.7884 -65.7884 -65.7884 -65.7884
   -46.7829 -46.7829 -46.7828 -46.7828 -46.1564 -46.1564 -46.1564 -46.1564
   -45.8807 -45.8807 -45.8806 -45.8806 -32.5563 -32.5563 -32.5563 -32.5563
   -32.5345 -32.5345 -32.5345 -32.5345 -32.5149 -32.5149 -32.5149 -32.5149
   -11.8365 -11.8365 -11.7490 -11.7490 -10.5386 -10.5386 -10.5077 -10.5077
   -10.3301 -10.3301 -10.1666 -10.1666 -10.0222 -10.0222  -9.9502  -9.9502
     0.5908   0.5908   0.6433   0.6433   1.5181   1.5181   1.6349   1.6349
     2.2182   2.2182   2.5830   2.5830   2.7522   2.7522   3.0881   3.0881
     3.1675   3.1675   3.2913   3.2913   3.5727   3.5727   3.8734   3.8734
     3.9404   3.9404   3.9573   3.9573   4.1314   4.1314   4.2307   4.2307
     4.4910   4.4910   4.7364   4.7364   4.8091   4.8091   4.9993   4.9993
     5.0776   5.0776   5.2306   5.2306   5.6069   5.6069   5.6599   5.6599
     6.1880   6.1880   6.2811   6.2811   6.6984   6.6984   6.7569   6.7569
     7.0823   7.0823   7.1503   7.1503   7.8623   7.8623   7.8764   7.8764
     8.0609   8.0609   8.0654   8.0654  12.6964  12.6964  13.7171  13.7171
    14.5492  14.5492  15.8165  15.8165  15.8318  15.8318  16.7279  16.7279
    16.8333  16.8333

          k =-0.4878 0.0000 0.0000 ( 15374 PWs)   bands (ev):

   -80.2206 -80.2206 -80.2181 -80.2181 -65.7884 -65.7884 -65.7884 -65.7884
   -46.7855 -46.7855 -46.7802 -46.7802 -46.1581 -46.1581 -46.1547 -46.1547
   -45.8982 -45.8982 -45.8629 -45.8629 -32.5564 -32.5564 -32.5563 -32.5563
   -32.5345 -32.5345 -32.5345 -32.5345 -32.5148 -32.5148 -32.5148 -32.5148
   -11.7363 -11.7363 -11.4314 -11.4314 -10.9033 -10.9033 -10.6451 -10.6451
   -10.3458 -10.3458 -10.1100 -10.1100 -10.0206 -10.0206  -9.9980  -9.9980
     0.4649   0.4649   0.5989   0.5989   2.0018   2.0018   2.0063   2.0063
     2.3042   2.3042   2.4267   2.4267   2.5494   2.5494   2.7031   2.7031
     2.9400   2.9400   2.9997   2.9997   3.0473   3.0473   3.6159   3.6159
     4.0399   4.0399   4.2135   4.2135   4.2557   4.2557   4.5163   4.5163
     4.6642   4.6642   4.7365   4.7365   4.8574   4.8574   5.0962   5.0962
     5.2445   5.2445   5.6670   5.6670   5.8447   5.8447   6.0335   6.0335
     6.1626   6.1626   6.2996   6.2996   6.3765   6.3765   6.8874   6.8874
     6.9132   6.9132   7.2801   7.2801   7.5427   7.5427   7.9917   7.9917
     8.1753   8.1753   8.2326   8.2326  13.3521  13.3521  14.0461  14.0461
    14.3092  14.3092  14.8331  14.8331  15.0899  15.0899  15.3445  15.3445
    15.9199  15.9199

          k =-0.4878 0.0000-0.3992 ( 15436 PWs)   bands (ev):

   -80.2194 -80.2194 -80.2194 -80.2194 -65.7884 -65.7884 -65.7884 -65.7884
   -46.7829 -46.7829 -46.7829 -46.7829 -46.1564 -46.1564 -46.1564 -46.1564
   -45.8807 -45.8807 -45.8807 -45.8807 -32.5564 -32.5564 -32.5564 -32.5564
   -32.5345 -32.5345 -32.5345 -32.5345 -32.5148 -32.5148 -32.5148 -32.5148
   -11.5884 -11.5884 -11.5474 -11.5474 -10.7823 -10.7823 -10.7680 -10.7680
   -10.3117 -10.3117 -10.2140 -10.2140 -10.0179 -10.0179  -9.9990  -9.9990
     0.6393   0.6393   0.7189   0.7189   1.9611   1.9611   2.2517   2.2517
     2.3777   2.3777   2.4977   2.4977   2.5811   2.5811   2.7084   2.7084
     3.0532   3.0532   3.0632   3.0632   3.4228   3.4228   3.5084   3.5084
     3.6172   3.6172   3.9186   3.9186   4.4022   4.4022   4.5193   4.5193
     4.6005   4.6005   4.6893   4.6893   4.7289   4.7289   4.8997   4.8997
     5.2386   5.2386   5.3592   5.3592   5.5189   5.5189   5.6798   5.6798
     6.2432   6.2432   6.2819   6.2819   6.7638   6.7638   6.7700   6.7700
     7.0558   7.0558   7.0908   7.0908   7.7774   7.7774   7.8009   7.8009
     8.0987   8.0987   8.1054   8.1054  14.2476  14.2476  14.2700  14.2700
    14.8603  14.8603  14.9190  14.9190  15.2601  15.2601  15.4936  15.4936
    16.3179  16.3179

 ------ SPIN DOWN ----------


          k = 0.0000 0.0000 0.0000 ( 15339 PWs)   bands (ev):

   -76.0884 -76.0882 -76.0856 -76.0855 -65.7877 -65.7877 -65.7876 -65.7876
   -42.3771 -42.3771 -42.3698 -42.3697 -42.2013 -42.2013 -42.1959 -42.1959
   -42.1652 -42.1652 -42.1237 -42.1236 -32.5570 -32.5570 -32.5546 -32.5545
   -32.5337 -32.5336 -32.5333 -32.5333 -32.5154 -32.5154 -32.5119 -32.5119
   -12.0151 -11.7887 -11.5234 -11.3576 -10.4184 -10.3797 -10.3360 -10.2750
   -10.2166 -10.0844 -10.0515 -10.0184  -9.9881  -9.9793  -9.8560  -9.7861
     0.4507   0.4640   0.9375   1.0266   1.1230   1.2252   1.9540   1.9799
     2.0283   2.3609   2.4374   2.5304   2.6239   3.2239   3.2952   3.4659
     3.6839   3.8409   3.9807   4.0363   4.0509   4.1094   4.1519   4.1532
     4.1639   4.2681   4.3887   4.4063   4.5485   4.7070   4.7074   4.7755
     4.9183   5.0149   5.1000   5.2126   5.2548   5.2561   5.3023   5.3858
     5.5888   5.7621   5.8808   5.9098   5.9143   5.9177   6.0461   6.0780
     8.8841   8.9233   9.2086   9.3031   9.6232   9.6603   9.8671   9.9721
    10.0197  10.0864  10.3813  10.3927  11.1270  11.1649  11.2091  11.2402
    11.3210  11.3779  11.3807  11.3919  11.4491  13.1117  13.5063  14.8106
    15.0157  15.7348  15.7873  15.8039  15.8712  15.8970  16.0283  16.2545
    16.2781  16.9123

          k = 0.0000 0.0000-0.3992 ( 15392 PWs)   bands (ev):

   -76.0870 -76.0870 -76.0870 -76.0870 -65.7876 -65.7876 -65.7876 -65.7876
   -42.3734 -42.3734 -42.3734 -42.3734 -42.1983 -42.1983 -42.1983 -42.1983
   -42.1449 -42.1449 -42.1449 -42.1449 -32.5558 -32.5558 -32.5558 -32.5558
   -32.5335 -32.5335 -32.5335 -32.5335 -32.5137 -32.5137 -32.5137 -32.5137
   -11.7125 -11.7125 -11.6241 -11.6241 -10.3753 -10.3753 -10.3443 -10.3443
   -10.2152 -10.2152 -10.0415 -10.0415  -9.9195  -9.9195  -9.8386  -9.8386
     0.7458   0.7458   0.8142   0.8142   1.6893   1.6893   1.7557   1.7557
     2.3966   2.3966   2.7944   2.7944   2.9920   2.9920   3.3131   3.3131
     3.5017   3.5017   3.7330   3.7330   3.9866   3.9866   4.1095   4.1095
     4.2853   4.2853   4.3603   4.3603   4.5881   4.5881   4.6195   4.6195
     5.0066   5.0066   5.0139   5.0139   5.2458   5.2458   5.3162   5.3162
     5.3236   5.3236   5.5904   5.5904   5.9298   5.9298   5.9472   5.9472
     9.3747   9.3747   9.4197   9.4197   9.7081   9.7081   9.7122   9.7122
     9.9937   9.9937  10.0703  10.0703  11.1358  11.1358  11.1594  11.1594
    11.3669  11.3669  11.3990  11.3990  13.0379  13.0379  14.1208  14.1208
    14.7457  14.7457  16.0545  16.0545  16.1566  16.1566  17.0059  17.0059
    17.0943  17.0944

          k =-0.4878 0.0000 0.0000 ( 15374 PWs)   bands (ev):

   -76.0884 -76.0884 -76.0855 -76.0855 -65.7876 -65.7876 -65.7876 -65.7876
   -42.3772 -42.3772 -42.3698 -42.3698 -42.2013 -42.2013 -42.1959 -42.1959
   -42.1652 -42.1652 -42.1237 -42.1237 -32.5559 -32.5559 -32.5558 -32.5558
   -32.5335 -32.5335 -32.5334 -32.5334 -32.5137 -32.5137 -32.5137 -32.5137
   -11.6164 -11.6164 -11.3118 -11.3118 -10.7365 -10.7365 -10.4982 -10.4982
   -10.2010 -10.2010  -9.9705  -9.9705  -9.9225  -9.9225  -9.9053  -9.9053
     0.6171   0.6171   0.6827   0.6827   2.1775   2.1775   2.2278   2.2278
     2.5511   2.5511   2.6337   2.6337   2.8615   2.8615   2.9755   2.9755
     3.1893   3.1893   3.2470   3.2470   3.4074   3.4074   3.8449   3.8449
     4.3666   4.3666   4.6274   4.6274   4.8477   4.8477   4.8924   4.8924
     5.0691   5.0691   5.1635   5.1635   5.3908   5.3908   5.4065   5.4065
     5.6911   5.6911   5.8522   5.8522   6.0009   6.0009   6.3519   6.3519
     8.9476   8.9476   9.2158   9.2158   9.6386   9.6386   9.9411   9.9411
    10.1195  10.1195  10.4290  10.4290  10.8969  10.8969  11.1512  11.1512
    11.4528  11.4528  11.4684  11.4684  13.5879  13.5879  14.2451  14.2451
    14.7194  14.7194  15.0087  15.0087  15.2454  15.2454  15.6465  15.6465
    16.4989  16.4989

          k =-0.4878 0.0000-0.3992 ( 15436 PWs)   bands (ev):

   -76.0871 -76.0871 -76.0871 -76.0871 -65.7877 -65.7877 -65.7876 -65.7876
   -42.3734 -42.3734 -42.3734 -42.3734 -42.1984 -42.1984 -42.1984 -42.1984
   -42.1449 -42.1449 -42.1449 -42.1449 -32.5559 -32.5559 -32.5559 -32.5559
   -32.5335 -32.5335 -32.5335 -32.5335 -32.5137 -32.5137 -32.5137 -32.5137
   -11.4674 -11.4674 -11.4246 -11.4246 -10.6235 -10.6235 -10.6155 -10.6155
   -10.1752 -10.1752 -10.0882 -10.0882  -9.9093  -9.9093  -9.8971  -9.8971
     0.7599   0.7599   0.8531   0.8531   2.2758   2.2758   2.5098   2.5098
     2.6370   2.6370   2.7396   2.7396   2.7615   2.7615   2.9466   2.9466
     3.2530   3.2530   3.2735   3.2735   3.6581   3.6581   3.7214   3.7214
     3.8925   3.8925   4.2983   4.2983   4.7816   4.7816   4.8311   4.8311
     4.9508   4.9508   5.3196   5.3196   5.3611   5.3611   5.4475   5.4475
     5.6093   5.6093   5.6975   5.6975   5.8926   5.8926   5.9334   5.9334
     9.3519   9.3519   9.3728   9.3728   9.7656   9.7656   9.7765   9.7765
    10.0328  10.0328  10.0476  10.0476  11.0030  11.0030  11.0131  11.0131
    11.2900  11.2900  11.2923  11.2923  14.6017  14.6017  14.6607  14.6607
    15.2186  15.2186  15.2487  15.2487  15.5129  15.5129  15.8546  15.8546
    16.5174  16.5174

     the Fermi energy is     9.5245 ev

!    total energy              =   -2738.46929598 Ry

     total all-electron energy =    -16515.670206 Ry
     estimated scf accuracy    <          4.3E-10 Ry
     smearing contrib. (-TS)   =      -0.00387111 Ry
     internal energy E=F+TS    =   -2738.46542487 Ry

     The total energy is F=E-TS. E is the sum of the following terms:
     one-electron contribution =   -1243.56010890 Ry
     hartree contribution      =     722.40812533 Ry
     xc contribution           =    -328.22808981 Ry
     ewald contribution        =   -1202.60218200 Ry
     one-center paw contrib.   =    -686.48316948 Ry

     total magnetization       =    16.00 Bohr mag/cell
     absolute magnetization    =    16.14 Bohr mag/cell

     convergence has been achieved in   9 iterations

     negative rho (up, down):  0.000E+00 1.656E-03

     Forces acting on atoms (cartesian axes, Ry/au):

     atom    1 type  1   force =     0.00000000    0.00000000    0.00000000
     atom    2 type  1   force =    -0.00000000   -0.00000000   -0.00000000
     atom    3 type  1   force =     0.00000000    0.00000000    0.00000000
     atom    4 type  1   force =     0.00000000    0.00000000    0.00000000
     atom    5 type  2   force =    -0.00015169   -0.00010854    0.00000000
     atom    6 type  2   force =     0.00015169    0.00010854   -0.00000000
     atom    7 type  2   force =    -0.00015169    0.00010854   -0.00000000
     atom    8 type  2   force =     0.00015169   -0.00010854    0.00000000
     atom    9 type  3   force =    -0.00007735    0.00014541   -0.00000000
     atom   10 type  3   force =     0.00007735   -0.00014541   -0.00000000
     atom   11 type  3   force =    -0.00007735   -0.00014541    0.00000000
     atom   12 type  3   force =     0.00007735    0.00014541    0.00000000
     atom   13 type  4   force =    -0.00002598    0.00003167    0.00000000
     atom   14 type  4   force =     0.00002598   -0.00003167    0.00000000
     atom   15 type  4   force =    -0.00002598   -0.00003167    0.00000000
     atom   16 type  4   force =     0.00002598    0.00003167    0.00000000
     atom   17 type  4   force =     0.00002722    0.00009761    0.00000000
     atom   18 type  4   force =    -0.00002722   -0.00009761    0.00000000
     atom   19 type  4   force =     0.00002722   -0.00009761    0.00000000
     atom   20 type  4   force =    -0.00002722    0.00009761    0.00000000
     atom   21 type  4   force =    -0.00007311   -0.00010675   -0.00008016
     atom   22 type  4   force =     0.00007311    0.00010675    0.00008016
     atom   23 type  4   force =    -0.00007311    0.00010675    0.00008016
     atom   24 type  4   force =     0.00007311   -0.00010675   -0.00008016
     atom   25 type  4   force =     0.00007311    0.00010675   -0.00008016
     atom   26 type  4   force =    -0.00007311   -0.00010675    0.00008016
     atom   27 type  4   force =     0.00007311   -0.00010675    0.00008016
     atom   28 type  4   force =    -0.00007311    0.00010675   -0.00008016

     Total force =     0.000693     Total SCF correction =     0.000030


     Computing stress (Cartesian axis) and pressure


     negative rho (up, down):  0.000E+00 1.656E-03
          total   stress  (Ry/bohr**3)                   (kbar)     P=        0.11
   0.00000079   0.00000000   0.00000000            0.12        0.00        0.00
   0.00000000   0.00000172   0.00000000            0.00        0.25        0.00
   0.00000000   0.00000000  -0.00000036            0.00        0.00       -0.05

     Energy error            =      1.3E-06
     Gradient error          =      1.5E-04
     Cell gradient error     =      1.7E-06


     number of scf cycles    =  21
     number of bfgs steps    =  20

     enthalpy old            =   -2738.4692946818 Ry
     enthalpy new            =   -2738.4692959813 Ry

     CASE: enthalpy_new < enthalpy_old

     new trust radius        =       0.0008593440 bohr
     new conv_thr            =       0.0000000010 Ry

     new unit-cell volume =   2048.91142 a.u.^3 (   303.61735 Ang^3 )
     density =      3.76785 g/cm^3

CELL_PARAMETERS (angstrom)
   4.872499701   0.000000000   0.000000000
   0.000000000  10.463665816   0.000000000
   0.000000000   0.000000000   5.955125242

ATOMIC_POSITIONS (angstrom)
Fe            0.0000000000        0.0000000000        0.0000000000
Fe            2.4362498504        5.2318329081        0.0000000000
Fe           -0.0000000000       -0.0000000000        2.9775626210
Fe            2.4362498504        5.2318329081        2.9775626210
Mg            0.0536329295        2.8939297696        4.4663439315
Mg            4.8188667714        7.5697360465        1.4887813105
Mg            2.4898827799        2.3379031384        1.4887813105
Mg            2.3826169210        8.1257626777        4.4663439315
Si            0.3585170761        4.2230851254        1.4887813105
Si            4.5139826247        6.2405806907        4.4663439315
Si            2.7947669266        1.0087477827        4.4663439315
Si            2.0777327743        9.4549180334        1.4887813105
O             1.1536798871        1.0390785803        4.4663439315
O             3.7188198137        9.4245872358        1.4887813105
O             3.5899297376        4.1927543278        1.4887813105
O             1.2825699633        6.2709114883        4.4663439315
O             1.4608217783        0.5428923634        1.4887813105
O             3.4116779225        9.9207734527        4.4663439315
O             3.8970716288        4.6889405447        4.4663439315
O             0.9754280721        5.7747252715        1.4887813105
O             1.0856241749        3.5027377969        2.7864850561
O             3.7868755260        6.9609280192        3.1686401859
O             3.5218740253        1.7290951112        3.1686401859
O             1.3506256755        8.7345707050        2.7864850561
O             3.7868755260        6.9609280192        5.7640476772
O             1.0856241749        3.5027377969        0.1910775649
O             1.3506256755        8.7345707050        0.1910775649
O             3.5218740253        1.7290951112        5.7640476772



     Writing output data file ./out/oliv.save/
     NEW-OLD atomic charge density approx. for the potential

     Check: negative core charge=   -0.000006

     negative rho (up, down):  0.000E+00 1.656E-03
     extrapolated charge  216.00331, renormalised to  216.00000
     Generating pointlists ...

     total cpu time spent up to now is    16489.0 secs

     Self-consistent Calculation

     iteration #  1     ecut=    60.00 Ry     beta= 0.30
     Davidson diagonalization with overlap
     ethr =  1.00E-06,  avg # of iterations =  2.0

     Threshold (ethr) on eigenvalues was too large:
     Diagonalizing with lowered threshold

     Davidson diagonalization with overlap
     ethr =  8.66E-10,  avg # of iterations = 10.9

     negative rho (up, down):  0.000E+00 1.657E-03

     total cpu time spent up to now is    16619.9 secs

     total energy              =   -2738.46929609 Ry
     estimated scf accuracy    <       0.00000162 Ry

     total magnetization       =    16.00 Bohr mag/cell
     absolute magnetization    =    16.14 Bohr mag/cell

     iteration #  2     ecut=    60.00 Ry     beta= 0.30
     Davidson diagonalization with overlap
     ethr =  7.50E-10,  avg # of iterations =  4.5

     negative rho (up, down):  0.000E+00 1.657E-03

     total cpu time spent up to now is    16663.0 secs

     total energy              =   -2738.46929679 Ry
     estimated scf accuracy    <       0.00000122 Ry

     total magnetization       =    16.00 Bohr mag/cell
     absolute magnetization    =    16.14 Bohr mag/cell

     iteration #  3     ecut=    60.00 Ry     beta= 0.30
     Davidson diagonalization with overlap
     ethr =  5.63E-10,  avg # of iterations =  2.0

     negative rho (up, down):  0.000E+00 1.656E-03

     total cpu time spent up to now is    16689.2 secs

     total energy              =   -2738.46929681 Ry
     estimated scf accuracy    <       0.00000028 Ry

     total magnetization       =    16.00 Bohr mag/cell
     absolute magnetization    =    16.14 Bohr mag/cell

     iteration #  4     ecut=    60.00 Ry     beta= 0.30
     Davidson diagonalization with overlap
     ethr =  1.29E-10,  avg # of iterations =  5.8

     negative rho (up, down):  0.000E+00 1.656E-03

     total cpu time spent up to now is    16723.3 secs

     total energy              =   -2738.46929689 Ry
     estimated scf accuracy    <       0.00000003 Ry

     total magnetization       =    16.00 Bohr mag/cell
     absolute magnetization    =    16.14 Bohr mag/cell

     iteration #  5     ecut=    60.00 Ry     beta= 0.30
     Davidson diagonalization with overlap
     ethr =  1.59E-11,  avg # of iterations =  7.9

     negative rho (up, down):  0.000E+00 1.656E-03

     total cpu time spent up to now is    16769.9 secs

     total energy              =   -2738.46929691 Ry
     estimated scf accuracy    <          4.9E-09 Ry

     total magnetization       =    16.00 Bohr mag/cell
     absolute magnetization    =    16.14 Bohr mag/cell

     iteration #  6     ecut=    60.00 Ry     beta= 0.30
     Davidson diagonalization with overlap
     ethr =  2.29E-12,  avg # of iterations =  6.0

     negative rho (up, down):  0.000E+00 1.656E-03

     total cpu time spent up to now is    16808.7 secs

     total energy              =   -2738.46929691 Ry
     estimated scf accuracy    <          1.6E-09 Ry

     total magnetization       =    16.00 Bohr mag/cell
     absolute magnetization    =    16.14 Bohr mag/cell

     iteration #  7     ecut=    60.00 Ry     beta= 0.30
     Davidson diagonalization with overlap
     ethr =  7.21E-13,  avg # of iterations =  4.4

     negative rho (up, down):  0.000E+00 1.656E-03

     Magnetic moment per site:
     atom:    1    charge:   13.3537    magn:    3.3519    constr:    0.0000
     atom:    2    charge:   13.3537    magn:    3.3519    constr:    0.0000
     atom:    3    charge:   13.3537    magn:    3.3519    constr:    0.0000
     atom:    4    charge:   13.3537    magn:    3.3519    constr:    0.0000
     atom:    5    charge:    8.0831    magn:    0.0010    constr:    0.0000
     atom:    6    charge:    8.0831    magn:    0.0010    constr:    0.0000
     atom:    7    charge:    8.0831    magn:    0.0010    constr:    0.0000
     atom:    8    charge:    8.0831    magn:    0.0010    constr:    0.0000
     atom:    9    charge:    0.3883    magn:    0.0014    constr:    0.0000
     atom:   10    charge:    0.3883    magn:    0.0014    constr:    0.0000
     atom:   11    charge:    0.3883    magn:    0.0014    constr:    0.0000
     atom:   12    charge:    0.3883    magn:    0.0014    constr:    0.0000
     atom:   13    charge:    4.0373    magn:    0.0789    constr:    0.0000
     atom:   14    charge:    4.0373    magn:    0.0789    constr:    0.0000
     atom:   15    charge:    4.0373    magn:    0.0789    constr:    0.0000
     atom:   16    charge:    4.0373    magn:    0.0789    constr:    0.0000
     atom:   17    charge:    4.0320    magn:    0.0833    constr:    0.0000
     atom:   18    charge:    4.0320    magn:    0.0833    constr:    0.0000
     atom:   19    charge:    4.0320    magn:    0.0833    constr:    0.0000
     atom:   20    charge:    4.0320    magn:    0.0833    constr:    0.0000
     atom:   21    charge:    4.0358    magn:    0.0446    constr:    0.0000
     atom:   22    charge:    4.0358    magn:    0.0446    constr:    0.0000
     atom:   23    charge:    4.0358    magn:    0.0446    constr:    0.0000
     atom:   24    charge:    4.0358    magn:    0.0446    constr:    0.0000
     atom:   25    charge:    4.0358    magn:    0.0446    constr:    0.0000
     atom:   26    charge:    4.0358    magn:    0.0446    constr:    0.0000
     atom:   27    charge:    4.0358    magn:    0.0446    constr:    0.0000
     atom:   28    charge:    4.0358    magn:    0.0446    constr:    0.0000

     total cpu time spent up to now is    16851.4 secs

     End of self-consistent calculation

 ------ SPIN UP ------------


          k = 0.0000 0.0000 0.0000 ( 15339 PWs)   bands (ev):

   -80.2212 -80.2211 -80.2187 -80.2187 -65.7883 -65.7882 -65.7882 -65.7881
   -46.7862 -46.7861 -46.7808 -46.7808 -46.1586 -46.1586 -46.1553 -46.1553
   -45.8988 -45.8988 -45.8635 -45.8635 -32.5573 -32.5573 -32.5549 -32.5548
   -32.5345 -32.5344 -32.5342 -32.5341 -32.5163 -32.5163 -32.5128 -32.5127
   -12.1394 -11.9206 -11.6366 -11.4800 -10.5761 -10.5476 -10.4982 -10.4427
   -10.3437 -10.2134 -10.1583 -10.1487 -10.1256 -10.0713  -9.9544  -9.8790
     0.2396   0.3003   0.8332   0.9386   0.9897   1.0011   1.6833   1.8848
     1.9273   2.0210   2.2292   2.3236   2.3521   3.1424   3.1484   3.2911
     3.3654   3.4424   3.4755   3.5452   3.6449   3.7005   3.8062   3.8098
     3.8263   3.8589   4.0261   4.0296   4.2246   4.2419   4.3058   4.3919
     4.5410   4.5602   4.5625   4.8066   4.9211   5.0708   5.1407   5.2052
     5.2171   5.2832   5.4727   5.6623   5.7255   5.7896   5.8045   5.8714
     5.9428   5.9642   6.1679   6.2258   6.2392   6.3652   6.8621   6.8743
     6.9416   7.0195   7.2778   7.3259   7.7404   7.9347   7.9547   7.9748
     7.9928   8.1757   8.2370   8.2734  10.8104  12.6030  13.3750  14.6708
    14.8344  15.4564  15.5694  15.5824  15.5863  15.7822  15.8574  16.0157
    16.1061  16.3465

          k = 0.0000 0.0000-0.3992 ( 15392 PWs)   bands (ev):

   -80.2200 -80.2200 -80.2200 -80.2200 -65.7882 -65.7882 -65.7882 -65.7882
   -46.7835 -46.7835 -46.7835 -46.7835 -46.1570 -46.1570 -46.1570 -46.1570
   -45.8813 -45.8813 -45.8813 -45.8813 -32.5561 -32.5561 -32.5561 -32.5561
   -32.5343 -32.5343 -32.5343 -32.5343 -32.5146 -32.5146 -32.5146 -32.5146
   -11.8365 -11.8365 -11.7490 -11.7490 -10.5390 -10.5390 -10.5080 -10.5080
   -10.3302 -10.3302 -10.1667 -10.1667 -10.0219 -10.0219  -9.9500  -9.9500
     0.5905   0.5905   0.6430   0.6430   1.5179   1.5179   1.6347   1.6347
     2.2182   2.2182   2.5829   2.5829   2.7520   2.7520   3.0880   3.0880
     3.1671   3.1671   3.2910   3.2910   3.5726   3.5726   3.8736   3.8736
     3.9402   3.9402   3.9570   3.9570   4.1316   4.1316   4.2303   4.2303
     4.4911   4.4911   4.7360   4.7360   4.8091   4.8091   4.9990   4.9990
     5.0775   5.0775   5.2310   5.2310   5.6069   5.6069   5.6596   5.6596
     6.1871   6.1871   6.2803   6.2803   6.6980   6.6980   6.7564   6.7564
     7.0816   7.0816   7.1496   7.1496   7.8620   7.8620   7.8762   7.8762
     8.0597   8.0597   8.0643   8.0643  12.6961  12.6961  13.7164  13.7164
    14.5493  14.5493  15.8161  15.8161  15.8312  15.8312  16.7278  16.7278
    16.8332  16.8332

          k =-0.4879 0.0000 0.0000 ( 15374 PWs)   bands (ev):

   -80.2212 -80.2212 -80.2187 -80.2187 -65.7882 -65.7882 -65.7882 -65.7882
   -46.7862 -46.7862 -46.7809 -46.7809 -46.1586 -46.1586 -46.1553 -46.1553
   -45.8988 -45.8988 -45.8635 -45.8635 -32.5562 -32.5562 -32.5561 -32.5561
   -32.5343 -32.5343 -32.5343 -32.5343 -32.5146 -32.5146 -32.5145 -32.5145
   -11.7361 -11.7361 -11.4313 -11.4313 -10.9037 -10.9037 -10.6455 -10.6455
   -10.3461 -10.3461 -10.1103 -10.1103 -10.0203 -10.0203  -9.9977  -9.9977
     0.4645   0.4645   0.5985   0.5985   2.0017   2.0017   2.0062   2.0062
     2.3041   2.3041   2.4268   2.4268   2.5490   2.5490   2.7030   2.7030
     2.9398   2.9398   2.9997   2.9997   3.0472   3.0472   3.6160   3.6160
     4.0398   4.0398   4.2138   4.2138   4.2554   4.2554   4.5160   4.5160
     4.6641   4.6641   4.7363   4.7363   4.8575   4.8575   5.0959   5.0959
     5.2447   5.2447   5.6668   5.6668   5.8443   5.8443   6.0330   6.0330
     6.1623   6.1623   6.2988   6.2988   6.3758   6.3758   6.8870   6.8870
     6.9123   6.9123   7.2792   7.2792   7.5418   7.5418   7.9916   7.9916
     8.1748   8.1748   8.2313   8.2313  13.3517  13.3517  14.0460  14.0460
    14.3081  14.3081  14.8323  14.8323  15.0900  15.0900  15.3440  15.3440
    15.9190  15.9190

          k =-0.4879 0.0000-0.3992 ( 15436 PWs)   bands (ev):

   -80.2200 -80.2200 -80.2200 -80.2200 -65.7882 -65.7882 -65.7882 -65.7882
   -46.7835 -46.7835 -46.7835 -46.7835 -46.1570 -46.1570 -46.1570 -46.1570
   -45.8813 -45.8813 -45.8813 -45.8813 -32.5562 -32.5562 -32.5562 -32.5562
   -32.5343 -32.5343 -32.5343 -32.5343 -32.5146 -32.5146 -32.5145 -32.5145
   -11.5883 -11.5883 -11.5473 -11.5473 -10.7827 -10.7827 -10.7683 -10.7683
   -10.3120 -10.3120 -10.2141 -10.2141 -10.0177 -10.0177  -9.9988  -9.9988
     0.6387   0.6387   0.7185   0.7185   1.9610   1.9610   2.2516   2.2516
     2.3774   2.3774   2.4972   2.4972   2.5810   2.5810   2.7086   2.7086
     3.0531   3.0531   3.0634   3.0634   3.4230   3.4230   3.5084   3.5084
     3.6170   3.6170   3.9186   3.9186   4.4016   4.4016   4.5195   4.5195
     4.6005   4.6005   4.6888   4.6888   4.7292   4.7292   4.8997   4.8997
     5.2383   5.2383   5.3592   5.3592   5.5184   5.5184   5.6797   5.6797
     6.2424   6.2424   6.2812   6.2812   6.7632   6.7632   6.7695   6.7695
     7.0551   7.0551   7.0902   7.0902   7.7770   7.7770   7.8006   7.8006
     8.0976   8.0976   8.1045   8.1045  14.2475  14.2475  14.2693  14.2693
    14.8592  14.8592  14.9180  14.9180  15.2605  15.2605  15.4933  15.4933
    16.3174  16.3174

 ------ SPIN DOWN ----------


          k = 0.0000 0.0000 0.0000 ( 15339 PWs)   bands (ev):

   -76.0890 -76.0888 -76.0862 -76.0861 -65.7875 -65.7875 -65.7874 -65.7874
   -42.3777 -42.3777 -42.3704 -42.3704 -42.2020 -42.2020 -42.1966 -42.1966
   -42.1658 -42.1657 -42.1242 -42.1242 -32.5568 -32.5568 -32.5543 -32.5543
   -32.5335 -32.5334 -32.5331 -32.5331 -32.5152 -32.5152 -32.5117 -32.5116
   -12.0151 -11.7886 -11.5235 -11.3576 -10.4187 -10.3800 -10.3363 -10.2754
   -10.2168 -10.0846 -10.0512 -10.0187  -9.9884  -9.9791  -9.8556  -9.7857
     0.4506   0.4638   0.9373   1.0263   1.1230   1.2250   1.9538   1.9795
     2.0280   2.3606   2.4370   2.5308   2.6236   3.2236   3.2952   3.4656
     3.6838   3.8405   3.9807   4.0369   4.0509   4.1093   4.1518   4.1534
     4.1638   4.2677   4.3884   4.4060   4.5480   4.7068   4.7084   4.7751
     4.9178   5.0143   5.0999   5.2124   5.2544   5.2557   5.3027   5.3858
     5.5891   5.7621   5.8807   5.9096   5.9143   5.9176   6.0454   6.0778
     8.8837   8.9229   9.2082   9.3027   9.6223   9.6594   9.8661   9.9712
    10.0191  10.0857  10.3806  10.3920  11.1264  11.1645  11.2087  11.2395
    11.3200  11.3776  11.3801  11.3911  11.4480  13.1106  13.5065  14.8101
    15.0146  15.7338  15.7871  15.8032  15.8706  15.8972  16.0289  16.2545
    16.2781  16.9128

          k = 0.0000 0.0000-0.3992 ( 15392 PWs)   bands (ev):

   -76.0876 -76.0876 -76.0876 -76.0876 -65.7874 -65.7874 -65.7874 -65.7874
   -42.3740 -42.3740 -42.3740 -42.3740 -42.1990 -42.1990 -42.1990 -42.1990
   -42.1455 -42.1455 -42.1455 -42.1455 -32.5556 -32.5556 -32.5556 -32.5556
   -32.5333 -32.5333 -32.5333 -32.5333 -32.5135 -32.5135 -32.5135 -32.5135
   -11.7125 -11.7125 -11.6241 -11.6241 -10.3756 -10.3756 -10.3446 -10.3446
   -10.2153 -10.2153 -10.0416 -10.0416  -9.9193  -9.9193  -9.8384  -9.8384
     0.7455   0.7455   0.8140   0.8140   1.6890   1.6890   1.7555   1.7555
     2.3966   2.3966   2.7943   2.7943   2.9918   2.9918   3.3130   3.3130
     3.5012   3.5012   3.7329   3.7329   3.9867   3.9867   4.1098   4.1098
     4.2855   4.2855   4.3599   4.3599   4.5874   4.5874   4.6193   4.6193
     5.0069   5.0069   5.0133   5.0133   5.2460   5.2460   5.3160   5.3160
     5.3237   5.3237   5.5905   5.5905   5.9296   5.9296   5.9469   5.9469
     9.3740   9.3740   9.4190   9.4190   9.7077   9.7077   9.7117   9.7117
     9.9929   9.9929  10.0696  10.0696  11.1354  11.1354  11.1589  11.1589
    11.3659  11.3659  11.3980  11.3980  13.0376  13.0376  14.1201  14.1201
    14.7459  14.7459  16.0542  16.0542  16.1561  16.1561  17.0054  17.0054
    17.0939  17.0939

          k =-0.4879 0.0000 0.0000 ( 15374 PWs)   bands (ev):

   -76.0890 -76.0890 -76.0862 -76.0862 -65.7874 -65.7874 -65.7874 -65.7874
   -42.3778 -42.3778 -42.3704 -42.3704 -42.2020 -42.2020 -42.1966 -42.1966
   -42.1658 -42.1658 -42.1242 -42.1242 -32.5556 -32.5556 -32.5556 -32.5556
   -32.5333 -32.5333 -32.5333 -32.5333 -32.5134 -32.5134 -32.5134 -32.5134
   -11.6163 -11.6163 -11.3117 -11.3117 -10.7370 -10.7370 -10.4986 -10.4986
   -10.2013 -10.2013  -9.9708  -9.9708  -9.9222  -9.9222  -9.9050  -9.9050
     0.6167   0.6167   0.6824   0.6824   2.1774   2.1774   2.2277   2.2277
     2.5510   2.5510   2.6336   2.6336   2.8612   2.8612   2.9751   2.9751
     3.1892   3.1892   3.2470   3.2470   3.4074   3.4074   3.8452   3.8452
     4.3663   4.3663   4.6273   4.6273   4.8477   4.8477   4.8924   4.8924
     5.0688   5.0688   5.1637   5.1637   5.3907   5.3907   5.4063   5.4063
     5.6911   5.6911   5.8519   5.8519   6.0006   6.0006   6.3517   6.3517
     8.9471   8.9471   9.2154   9.2154   9.6377   9.6377   9.9402   9.9402
    10.1189  10.1189  10.4283  10.4283  10.8962  10.8962  11.1510  11.1510
    11.4522  11.4522  11.4671  11.4671  13.5877  13.5877  14.2448  14.2448
    14.7186  14.7186  15.0079  15.0079  15.2451  15.2451  15.6459  15.6459
    16.4988  16.4988

          k =-0.4879 0.0000-0.3992 ( 15436 PWs)   bands (ev):

   -76.0877 -76.0877 -76.0877 -76.0877 -65.7874 -65.7874 -65.7874 -65.7874
   -42.3740 -42.3740 -42.3740 -42.3740 -42.1990 -42.1990 -42.1990 -42.1990
   -42.1455 -42.1455 -42.1455 -42.1455 -32.5557 -32.5557 -32.5557 -32.5557
   -32.5333 -32.5333 -32.5333 -32.5333 -32.5135 -32.5135 -32.5134 -32.5134
   -11.4673 -11.4673 -11.4245 -11.4245 -10.6239 -10.6239 -10.6158 -10.6158
   -10.1755 -10.1755 -10.0882 -10.0882  -9.9092  -9.9092  -9.8969  -9.8969
     0.7593   0.7593   0.8526   0.8526   2.2758   2.2758   2.5096   2.5096
     2.6367   2.6367   2.7395   2.7395   2.7612   2.7612   2.9467   2.9467
     3.2529   3.2529   3.2736   3.2736   3.6582   3.6582   3.7213   3.7213
     3.8925   3.8925   4.2983   4.2983   4.7816   4.7816   4.8311   4.8311
     4.9504   4.9504   5.3194   5.3194   5.3612   5.3612   5.4475   5.4475
     5.6091   5.6091   5.6973   5.6973   5.8926   5.8926   5.9332   5.9332
     9.3511   9.3511   9.3721   9.3721   9.7651   9.7651   9.7761   9.7761
    10.0321  10.0321  10.0469  10.0469  11.0026  11.0026  11.0127  11.0127
    11.2889  11.2889  11.2913  11.2913  14.6017  14.6017  14.6601  14.6601
    15.2174  15.2174  15.2479  15.2479  15.5129  15.5129  15.8545  15.8545
    16.5169  16.5169

     the Fermi energy is     9.5238 ev

!    total energy              =   -2738.46929691 Ry

     total all-electron energy =    -16515.670207 Ry
     estimated scf accuracy    <          3.8E-10 Ry
     smearing contrib. (-TS)   =      -0.00387099 Ry
     internal energy E=F+TS    =   -2738.46542593 Ry

     The total energy is F=E-TS. E is the sum of the following terms:
     one-electron contribution =   -1243.54075454 Ry
     hartree contribution      =     722.39622924 Ry
     xc contribution           =    -328.22738708 Ry
     ewald contribution        =   -1202.61036377 Ry
     one-center paw contrib.   =    -686.48314977 Ry

     total magnetization       =    16.00 Bohr mag/cell
     absolute magnetization    =    16.14 Bohr mag/cell

     convergence has been achieved in   7 iterations

     negative rho (up, down):  0.000E+00 1.656E-03

     Forces acting on atoms (cartesian axes, Ry/au):

     atom    1 type  1   force =     0.00000000    0.00000000    0.00000000
     atom    2 type  1   force =    -0.00000000    0.00000000   -0.00000000
     atom    3 type  1   force =     0.00000000    0.00000000    0.00000000
     atom    4 type  1   force =     0.00000000    0.00000000    0.00000000
     atom    5 type  2   force =    -0.00011411   -0.00001281    0.00000000
     atom    6 type  2   force =     0.00011411    0.00001281    0.00000000
     atom    7 type  2   force =    -0.00011411    0.00001281    0.00000000
     atom    8 type  2   force =     0.00011411   -0.00001281    0.00000000
     atom    9 type  3   force =    -0.00011443    0.00012273    0.00000000
     atom   10 type  3   force =     0.00011443   -0.00012273    0.00000000
     atom   11 type  3   force =    -0.00011443   -0.00012273    0.00000000
     atom   12 type  3   force =     0.00011443    0.00012273    0.00000000
     atom   13 type  4   force =     0.00001601   -0.00002319    0.00000000
     atom   14 type  4   force =    -0.00001601    0.00002319    0.00000000
     atom   15 type  4   force =     0.00001601    0.00002319    0.00000000
     atom   16 type  4   force =    -0.00001601   -0.00002319    0.00000000
     atom   17 type  4   force =     0.00004861    0.00000594    0.00000000
     atom   18 type  4   force =    -0.00004861   -0.00000594    0.00000000
     atom   19 type  4   force =     0.00004861   -0.00000594    0.00000000
     atom   20 type  4   force =    -0.00004861    0.00000594    0.00000000
     atom   21 type  4   force =    -0.00005442    0.00000205   -0.00009885
     atom   22 type  4   force =     0.00005442   -0.00000205    0.00009885
     atom   23 type  4   force =    -0.00005442   -0.00000205    0.00009885
     atom   24 type  4   force =     0.00005442    0.00000205   -0.00009885
     atom   25 type  4   force =     0.00005442   -0.00000205   -0.00009885
     atom   26 type  4   force =    -0.00005442    0.00000205    0.00009885
     atom   27 type  4   force =     0.00005442    0.00000205    0.00009885
     atom   28 type  4   force =    -0.00005442   -0.00000205   -0.00009885

     Total force =     0.000529     Total SCF correction =     0.000042


     Computing stress (Cartesian axis) and pressure


     negative rho (up, down):  0.000E+00 1.656E-03
          total   stress  (Ry/bohr**3)                   (kbar)     P=        0.03
   0.00000089   0.00000000   0.00000000            0.13        0.00        0.00
   0.00000000   0.00000081   0.00000000            0.00        0.12        0.00
   0.00000000   0.00000000  -0.00000112            0.00        0.00       -0.17

     Energy error            =      9.3E-07
     Gradient error          =      1.2E-04
     Cell gradient error     =      1.1E-06


     number of scf cycles    =  22
     number of bfgs steps    =  21

     enthalpy old            =   -2738.4692959813 Ry
     enthalpy new            =   -2738.4692969109 Ry

     CASE: enthalpy_new < enthalpy_old

     new trust radius        =       0.0005910378 bohr
     new conv_thr            =       0.0000000010 Ry

     new unit-cell volume =   2048.92575 a.u.^3 (   303.61947 Ang^3 )
     density =      3.76783 g/cm^3

CELL_PARAMETERS (angstrom)
   4.872526169   0.000000000   0.000000000
   0.000000000  10.463975000   0.000000000
   0.000000000   0.000000000   5.954958585

ATOMIC_POSITIONS (angstrom)
Fe            0.0000000000        0.0000000000        0.0000000000
Fe            2.4362630844        5.2319875001        0.0000000000
Fe           -0.0000000000       -0.0000000000        2.9774792927
Fe            2.4362630844        5.2319875001        2.9774792927
Mg            0.0533884196        2.8938206104        4.4662189390
Mg            4.8191377492        7.5701543897        1.4887396463
Mg            2.4896515040        2.3381668896        1.4887396463
Mg            2.3828746648        8.1258081105        4.4662189390
Si            0.3584156276        4.2233027378        1.4887396463
Si            4.5141105411        6.2406722623        4.4662189390
Si            2.7946787120        1.0086847623        4.4662189390
Si            2.0778474567        9.4552902378        1.4887396463
O             1.1536066344        1.0390933113        4.4662189390
O             3.7189195343        9.4248816888        1.4887396463
O             3.5898697188        4.1928941888        1.4887396463
O             1.2826564500        6.2710808113        4.4662189390
O             1.4608472742        0.5429136181        1.4887396463
O             3.4116788946        9.9210613820        4.4662189390
O             3.8971103585        4.6890738819        4.4662189390
O             0.9754158102        5.7749011182        1.4887396463
O             1.0854631361        3.5027068037        2.7863317705
O             3.7870630327        6.9612681964        3.1686268149
O             3.5217262205        1.7292806963        3.1686268149
O             1.3507999483        8.7346943038        2.7863317705
O             3.7870630327        6.9612681964        5.7638110631
O             1.0854631361        3.5027068037        0.1911475222
O             1.3507999483        8.7346943038        0.1911475222
O             3.5217262205        1.7292806963        5.7638110631



     Writing output data file ./out/oliv.save/
     NEW-OLD atomic charge density approx. for the potential

     Check: negative core charge=   -0.000006

     negative rho (up, down):  0.000E+00 1.656E-03
     extrapolated charge  216.00151, renormalised to  216.00000
     Generating pointlists ...

     total cpu time spent up to now is    16895.0 secs

     Self-consistent Calculation

     iteration #  1     ecut=    60.00 Ry     beta= 0.30
     Davidson diagonalization with overlap
     ethr =  1.00E-06,  avg # of iterations =  2.0

     Threshold (ethr) on eigenvalues was too large:
     Diagonalizing with lowered threshold

     Davidson diagonalization with overlap
     ethr =  3.05E-10,  avg # of iterations = 11.8

     negative rho (up, down):  0.000E+00 1.657E-03

     total cpu time spent up to now is    17017.5 secs

     total energy              =   -2738.46929724 Ry
     estimated scf accuracy    <       0.00000058 Ry

     total magnetization       =    16.00 Bohr mag/cell
     absolute magnetization    =    16.14 Bohr mag/cell

     iteration #  2     ecut=    60.00 Ry     beta= 0.30
     Davidson diagonalization with overlap
     ethr =  2.70E-10,  avg # of iterations =  3.6

     negative rho (up, down):  0.000E+00 1.656E-03

     total cpu time spent up to now is    17049.7 secs

     total energy              =   -2738.46929744 Ry
     estimated scf accuracy    <       0.00000028 Ry

     total magnetization       =    16.00 Bohr mag/cell
     absolute magnetization    =    16.14 Bohr mag/cell

     iteration #  3     ecut=    60.00 Ry     beta= 0.30
     Davidson diagonalization with overlap
     ethr =  1.32E-10,  avg # of iterations =  2.0

     negative rho (up, down):  0.000E+00 1.656E-03

     total cpu time spent up to now is    17077.5 secs

     total energy              =   -2738.46929744 Ry
     estimated scf accuracy    <       0.00000007 Ry

     total magnetization       =    16.00 Bohr mag/cell
     absolute magnetization    =    16.14 Bohr mag/cell

     iteration #  4     ecut=    60.00 Ry     beta= 0.30
     Davidson diagonalization with overlap
     ethr =  3.21E-11,  avg # of iterations =  5.2

     negative rho (up, down):  0.000E+00 1.656E-03

     total cpu time spent up to now is    17115.0 secs

     total energy              =   -2738.46929747 Ry
     estimated scf accuracy    <       0.00000001 Ry

     total magnetization       =    16.00 Bohr mag/cell
     absolute magnetization    =    16.14 Bohr mag/cell

     iteration #  5     ecut=    60.00 Ry     beta= 0.30
     Davidson diagonalization with overlap
     ethr =  6.23E-12,  avg # of iterations =  4.6

     negative rho (up, down):  0.000E+00 1.656E-03

     total cpu time spent up to now is    17154.2 secs

     total energy              =   -2738.46929747 Ry
     estimated scf accuracy    <          1.8E-09 Ry

     total magnetization       =    16.00 Bohr mag/cell
     absolute magnetization    =    16.14 Bohr mag/cell

     iteration #  6     ecut=    60.00 Ry     beta= 0.30
     Davidson diagonalization with overlap
     ethr =  8.46E-13,  avg # of iterations =  6.5

     negative rho (up, down):  0.000E+00 1.656E-03

     Magnetic moment per site:
     atom:    1    charge:   13.3536    magn:    3.3519    constr:    0.0000
     atom:    2    charge:   13.3536    magn:    3.3519    constr:    0.0000
     atom:    3    charge:   13.3536    magn:    3.3519    constr:    0.0000
     atom:    4    charge:   13.3536    magn:    3.3519    constr:    0.0000
     atom:    5    charge:    8.0831    magn:    0.0010    constr:    0.0000
     atom:    6    charge:    8.0831    magn:    0.0010    constr:    0.0000
     atom:    7    charge:    8.0831    magn:    0.0010    constr:    0.0000
     atom:    8    charge:    8.0831    magn:    0.0010    constr:    0.0000
     atom:    9    charge:    0.3883    magn:    0.0014    constr:    0.0000
     atom:   10    charge:    0.3883    magn:    0.0014    constr:    0.0000
     atom:   11    charge:    0.3883    magn:    0.0014    constr:    0.0000
     atom:   12    charge:    0.3883    magn:    0.0014    constr:    0.0000
     atom:   13    charge:    4.0373    magn:    0.0789    constr:    0.0000
     atom:   14    charge:    4.0373    magn:    0.0789    constr:    0.0000
     atom:   15    charge:    4.0373    magn:    0.0789    constr:    0.0000
     atom:   16    charge:    4.0373    magn:    0.0789    constr:    0.0000
     atom:   17    charge:    4.0320    magn:    0.0833    constr:    0.0000
     atom:   18    charge:    4.0320    magn:    0.0833    constr:    0.0000
     atom:   19    charge:    4.0320    magn:    0.0833    constr:    0.0000
     atom:   20    charge:    4.0320    magn:    0.0833    constr:    0.0000
     atom:   21    charge:    4.0358    magn:    0.0446    constr:    0.0000
     atom:   22    charge:    4.0358    magn:    0.0446    constr:    0.0000
     atom:   23    charge:    4.0358    magn:    0.0446    constr:    0.0000
     atom:   24    charge:    4.0358    magn:    0.0446    constr:    0.0000
     atom:   25    charge:    4.0358    magn:    0.0446    constr:    0.0000
     atom:   26    charge:    4.0358    magn:    0.0446    constr:    0.0000
     atom:   27    charge:    4.0358    magn:    0.0446    constr:    0.0000
     atom:   28    charge:    4.0358    magn:    0.0446    constr:    0.0000

     total cpu time spent up to now is    17207.1 secs

     End of self-consistent calculation

 ------ SPIN UP ------------


          k = 0.0000 0.0000 0.0000 ( 15339 PWs)   bands (ev):

   -80.2218 -80.2218 -80.2194 -80.2193 -65.7881 -65.7880 -65.7880 -65.7879
   -46.7868 -46.7868 -46.7815 -46.7815 -46.1593 -46.1592 -46.1560 -46.1559
   -45.8995 -45.8994 -45.8641 -45.8641 -32.5571 -32.5571 -32.5546 -32.5546
   -32.5344 -32.5343 -32.5340 -32.5340 -32.5161 -32.5161 -32.5126 -32.5125
   -12.1395 -11.9208 -11.6367 -11.4802 -10.5766 -10.5482 -10.4987 -10.4432
   -10.3439 -10.2136 -10.1586 -10.1482 -10.1259 -10.0709  -9.9539  -9.8785
     0.2394   0.2999   0.8330   0.9384   0.9900   1.0010   1.6828   1.8849
     1.9273   2.0205   2.2294   2.3231   2.3520   3.1421   3.1484   3.2909
     3.3653   3.4424   3.4754   3.5449   3.6455   3.7000   3.8058   3.8092
     3.8259   3.8588   4.0259   4.0295   4.2244   4.2427   4.3055   4.3916
     4.5412   4.5605   4.5625   4.8061   4.9211   5.0703   5.1405   5.2053
     5.2174   5.2837   5.4725   5.6630   5.7255   5.7894   5.8052   5.8711
     5.9422   5.9635   6.1672   6.2251   6.2386   6.3646   6.8616   6.8738
     6.9410   7.0189   7.2772   7.3254   7.7397   7.9343   7.9537   7.9745
     7.9922   8.1747   8.2365   8.2726  10.8102  12.6023  13.3756  14.6704
    14.8336  15.4551  15.5683  15.5826  15.5862  15.7829  15.8587  16.0152
    16.1060  16.3458

          k = 0.0000 0.0000-0.3992 ( 15392 PWs)   bands (ev):

   -80.2206 -80.2206 -80.2206 -80.2206 -65.7880 -65.7880 -65.7880 -65.7880
   -46.7841 -46.7841 -46.7841 -46.7841 -46.1576 -46.1576 -46.1576 -46.1576
   -45.8819 -45.8819 -45.8819 -45.8819 -32.5559 -32.5559 -32.5559 -32.5559
   -32.5342 -32.5342 -32.5342 -32.5342 -32.5144 -32.5144 -32.5144 -32.5144
   -11.8367 -11.8367 -11.7492 -11.7492 -10.5394 -10.5394 -10.5085 -10.5085
   -10.3302 -10.3302 -10.1669 -10.1669 -10.0214 -10.0214  -9.9496  -9.9496
     0.5902   0.5902   0.6427   0.6427   1.5177   1.5177   1.6348   1.6348
     2.2183   2.2183   2.5828   2.5828   2.7519   2.7519   3.0880   3.0880
     3.1668   3.1668   3.2908   3.2908   3.5723   3.5723   3.8739   3.8739
     3.9402   3.9402   3.9567   3.9567   4.1317   4.1317   4.2302   4.2302
     4.4912   4.4912   4.7357   4.7357   4.8090   4.8090   4.9987   4.9987
     5.0774   5.0774   5.2311   5.2311   5.6072   5.6072   5.6595   5.6595
     6.1864   6.1864   6.2796   6.2796   6.6976   6.6976   6.7560   6.7560
     7.0810   7.0810   7.1490   7.1490   7.8616   7.8616   7.8758   7.8758
     8.0588   8.0588   8.0633   8.0633  12.6959  12.6959  13.7159  13.7159
    14.5497  14.5497  15.8154  15.8154  15.8301  15.8301  16.7282  16.7282
    16.8335  16.8335

          k =-0.4879 0.0000 0.0000 ( 15374 PWs)   bands (ev):

   -80.2218 -80.2218 -80.2194 -80.2194 -65.7880 -65.7880 -65.7880 -65.7880
   -46.7868 -46.7868 -46.7815 -46.7815 -46.1593 -46.1593 -46.1559 -46.1559
   -45.8995 -45.8995 -45.8642 -45.8642 -32.5559 -32.5559 -32.5559 -32.5559
   -32.5342 -32.5342 -32.5341 -32.5341 -32.5144 -32.5144 -32.5143 -32.5143
   -11.7363 -11.7363 -11.4314 -11.4314 -10.9042 -10.9042 -10.6459 -10.6459
   -10.3464 -10.3464 -10.1106 -10.1106 -10.0197 -10.0197  -9.9972  -9.9972
     0.4644   0.4644   0.5985   0.5985   2.0015   2.0015   2.0060   2.0060
     2.3039   2.3039   2.4265   2.4265   2.5486   2.5486   2.7028   2.7028
     2.9396   2.9396   2.9996   2.9996   3.0472   3.0472   3.6159   3.6159
     4.0397   4.0397   4.2140   4.2140   4.2553   4.2553   4.5156   4.5156
     4.6644   4.6644   4.7361   4.7361   4.8577   4.8577   5.0956   5.0956
     5.2451   5.2451   5.6666   5.6666   5.8442   5.8442   6.0323   6.0323
     6.1624   6.1624   6.2983   6.2983   6.3751   6.3751   6.8864   6.8864
     6.9119   6.9119   7.2786   7.2786   7.5411   7.5411   7.9913   7.9913
     8.1743   8.1743   8.2303   8.2303  13.3516  13.3516  14.0461  14.0461
    14.3071  14.3071  14.8315  14.8315  15.0906  15.0906  15.3441  15.3441
    15.9182  15.9182

          k =-0.4879 0.0000-0.3992 ( 15436 PWs)   bands (ev):

   -80.2206 -80.2206 -80.2206 -80.2206 -65.7880 -65.7880 -65.7880 -65.7880
   -46.7841 -46.7841 -46.7841 -46.7841 -46.1576 -46.1576 -46.1576 -46.1576
   -45.8819 -45.8819 -45.8819 -45.8819 -32.5560 -32.5560 -32.5560 -32.5560
   -32.5342 -32.5342 -32.5342 -32.5342 -32.5144 -32.5144 -32.5143 -32.5143
   -11.5885 -11.5885 -11.5475 -11.5475 -10.7832 -10.7832 -10.7687 -10.7687
   -10.3122 -10.3122 -10.2142 -10.2142 -10.0174 -10.0174  -9.9984  -9.9984
     0.6385   0.6385   0.7184   0.7184   1.9609   1.9609   2.2514   2.2514
     2.3770   2.3770   2.4967   2.4967   2.5810   2.5810   2.7087   2.7087
     3.0529   3.0529   3.0636   3.0636   3.4233   3.4233   3.5084   3.5084
     3.6169   3.6169   3.9183   3.9183   4.4012   4.4012   4.5196   4.5196
     4.6006   4.6006   4.6885   4.6885   4.7292   4.7292   4.8995   4.8995
     5.2383   5.2383   5.3593   5.3593   5.5182   5.5182   5.6797   5.6797
     6.2417   6.2417   6.2806   6.2806   6.7627   6.7627   6.7690   6.7690
     7.0545   7.0545   7.0897   7.0897   7.7766   7.7766   7.8001   7.8001
     8.0968   8.0968   8.1037   8.1037  14.2475  14.2475  14.2687  14.2687
    14.8582  14.8582  14.9172  14.9172  15.2612  15.2612  15.4933  15.4933
    16.3173  16.3173

 ------ SPIN DOWN ----------


          k = 0.0000 0.0000 0.0000 ( 15339 PWs)   bands (ev):

   -76.0896 -76.0894 -76.0868 -76.0868 -65.7873 -65.7873 -65.7872 -65.7872
   -42.3783 -42.3783 -42.3710 -42.3710 -42.2027 -42.2026 -42.1973 -42.1973
   -42.1664 -42.1664 -42.1248 -42.1248 -32.5566 -32.5565 -32.5541 -32.5541
   -32.5333 -32.5333 -32.5330 -32.5330 -32.5150 -32.5150 -32.5115 -32.5114
   -12.0152 -11.7888 -11.5236 -11.3578 -10.4191 -10.3805 -10.3367 -10.2758
   -10.2171 -10.0848 -10.0507 -10.0190  -9.9886  -9.9787  -9.8550  -9.7852
     0.4504   0.4635   0.9371   1.0261   1.1232   1.2248   1.9539   1.9791
     2.0280   2.3601   2.4369   2.5310   2.6232   3.2233   3.2953   3.4656
     3.6835   3.8405   3.9803   4.0375   4.0507   4.1091   4.1517   4.1532
     4.1636   4.2671   4.3880   4.4059   4.5476   4.7070   4.7092   4.7748
     4.9182   5.0139   5.0999   5.2120   5.2540   5.2557   5.3030   5.3858
     5.5889   5.7628   5.8812   5.9093   5.9147   5.9177   6.0452   6.0780
     8.8831   8.9222   9.2076   9.3020   9.6217   9.6588   9.8654   9.9705
    10.0185  10.0851  10.3801  10.3915  11.1257  11.1644  11.2082  11.2387
    11.3191  11.3771  11.3795  11.3902  11.4470  13.1098  13.5072  14.8097
    15.0138  15.7326  15.7873  15.8022  15.8704  15.8981  16.0301  16.2542
    16.2781  16.9138

          k = 0.0000 0.0000-0.3992 ( 15392 PWs)   bands (ev):

   -76.0883 -76.0883 -76.0883 -76.0883 -65.7872 -65.7872 -65.7872 -65.7872
   -42.3746 -42.3746 -42.3746 -42.3746 -42.1997 -42.1997 -42.1997 -42.1997
   -42.1461 -42.1461 -42.1461 -42.1461 -32.5553 -32.5553 -32.5553 -32.5553
   -32.5331 -32.5331 -32.5331 -32.5331 -32.5133 -32.5133 -32.5133 -32.5133
   -11.7127 -11.7127 -11.6243 -11.6243 -10.3760 -10.3760 -10.3451 -10.3451
   -10.2154 -10.2154 -10.0418 -10.0418  -9.9189  -9.9189  -9.8381  -9.8381
     0.7452   0.7452   0.8138   0.8138   1.6888   1.6888   1.7556   1.7556
     2.3968   2.3968   2.7944   2.7944   2.9917   2.9917   3.3130   3.3130
     3.5008   3.5008   3.7326   3.7326   3.9866   3.9866   4.1101   4.1101
     4.2856   4.2856   4.3596   4.3596   4.5870   4.5870   4.6192   4.6192
     5.0069   5.0069   5.0128   5.0128   5.2462   5.2462   5.3158   5.3158
     5.3237   5.3237   5.5907   5.5907   5.9297   5.9297   5.9469   5.9469
     9.3733   9.3733   9.4183   9.4183   9.7071   9.7071   9.7112   9.7112
     9.9923   9.9923  10.0689  10.0689  11.1349  11.1349  11.1583  11.1583
    11.3649  11.3649  11.3970  11.3970  13.0375  13.0375  14.1196  14.1196
    14.7463  14.7463  16.0539  16.0539  16.1551  16.1551  17.0056  17.0056
    17.0940  17.0941

          k =-0.4879 0.0000 0.0000 ( 15374 PWs)   bands (ev):

   -76.0897 -76.0897 -76.0868 -76.0868 -65.7872 -65.7872 -65.7872 -65.7872
   -42.3784 -42.3784 -42.3710 -42.3710 -42.2027 -42.2027 -42.1973 -42.1973
   -42.1664 -42.1664 -42.1248 -42.1248 -32.5554 -32.5554 -32.5554 -32.5554
   -32.5331 -32.5331 -32.5331 -32.5331 -32.5132 -32.5132 -32.5132 -32.5132
   -11.6165 -11.6165 -11.3117 -11.3117 -10.7375 -10.7375 -10.4989 -10.4989
   -10.2017 -10.2017  -9.9712  -9.9712  -9.9217  -9.9217  -9.9046  -9.9046
     0.6165   0.6165   0.6825   0.6825   2.1772   2.1772   2.2275   2.2275
     2.5508   2.5508   2.6334   2.6334   2.8609   2.8609   2.9747   2.9747
     3.1889   3.1889   3.2470   3.2470   3.4075   3.4075   3.8451   3.8451
     4.3661   4.3661   4.6275   4.6275   4.8480   4.8480   4.8922   4.8922
     5.0683   5.0683   5.1640   5.1640   5.3905   5.3905   5.4063   5.4063
     5.6915   5.6915   5.8517   5.8517   6.0006   6.0006   6.3518   6.3518
     8.9464   8.9464   9.2148   9.2148   9.6371   9.6371   9.9395   9.9395
    10.1183  10.1183  10.4278  10.4278  10.8955  10.8955  11.1505  11.1505
    11.4517  11.4517  11.4659  11.4659  13.5877  13.5877  14.2446  14.2446
    14.7180  14.7180  15.0070  15.0070  15.2455  15.2455  15.6459  15.6459
    16.4989  16.4989

          k =-0.4879 0.0000-0.3992 ( 15436 PWs)   bands (ev):

   -76.0883 -76.0883 -76.0883 -76.0883 -65.7872 -65.7872 -65.7872 -65.7872
   -42.3746 -42.3746 -42.3746 -42.3746 -42.1997 -42.1997 -42.1997 -42.1997
   -42.1461 -42.1461 -42.1461 -42.1461 -32.5555 -32.5555 -32.5554 -32.5554
   -32.5331 -32.5331 -32.5331 -32.5331 -32.5133 -32.5133 -32.5132 -32.5132
   -11.4674 -11.4674 -11.4246 -11.4246 -10.6244 -10.6244 -10.6161 -10.6161
   -10.1758 -10.1758 -10.0883 -10.0883  -9.9089  -9.9089  -9.8965  -9.8965
     0.7591   0.7591   0.8525   0.8525   2.2758   2.2758   2.5095   2.5095
     2.6364   2.6364   2.7394   2.7394   2.7609   2.7609   2.9466   2.9466
     3.2528   3.2528   3.2737   3.2737   3.6584   3.6584   3.7213   3.7213
     3.8926   3.8926   4.2981   4.2981   4.7815   4.7815   4.8310   4.8310
     4.9502   4.9502   5.3193   5.3193   5.3611   5.3611   5.4474   5.4474
     5.6091   5.6091   5.6972   5.6972   5.8927   5.8927   5.9332   5.9332
     9.3505   9.3505   9.3714   9.3714   9.7646   9.7646   9.7756   9.7756
    10.0314  10.0314  10.0462  10.0462  11.0021  11.0021  11.0122  11.0122
    11.2880  11.2880  11.2903  11.2903  14.6020  14.6020  14.6598  14.6598
    15.2162  15.2162  15.2471  15.2471  15.5133  15.5133  15.8546  15.8546
    16.5169  16.5169

     the Fermi energy is     9.5231 ev

!    total energy              =   -2738.46929748 Ry

     total all-electron energy =    -16515.670208 Ry
     estimated scf accuracy    <          5.7E-10 Ry
     smearing contrib. (-TS)   =      -0.00386882 Ry
     internal energy E=F+TS    =   -2738.46542866 Ry

     The total energy is F=E-TS. E is the sum of the following terms:
     one-electron contribution =   -1243.53434597 Ry
     hartree contribution      =     722.39155651 Ry
     xc contribution           =    -328.22726765 Ry
     ewald contribution        =   -1202.61221394 Ry
     one-center paw contrib.   =    -686.48315760 Ry

     total magnetization       =    16.00 Bohr mag/cell
     absolute magnetization    =    16.14 Bohr mag/cell

     convergence has been achieved in   6 iterations

     negative rho (up, down):  0.000E+00 1.656E-03

     Forces acting on atoms (cartesian axes, Ry/au):

     atom    1 type  1   force =     0.00000000    0.00000000    0.00000000
     atom    2 type  1   force =    -0.00000000    0.00000000   -0.00000000
     atom    3 type  1   force =     0.00000000    0.00000000    0.00000000
     atom    4 type  1   force =     0.00000000    0.00000000    0.00000000
     atom    5 type  2   force =    -0.00009394    0.00002862    0.00000000
     atom    6 type  2   force =     0.00009394   -0.00002862    0.00000000
     atom    7 type  2   force =    -0.00009394   -0.00002862    0.00000000
     atom    8 type  2   force =     0.00009394    0.00002862    0.00000000
     atom    9 type  3   force =    -0.00008554    0.00003962    0.00000000
     atom   10 type  3   force =     0.00008554   -0.00003962    0.00000000
     atom   11 type  3   force =    -0.00008554   -0.00003962   -0.00000000
     atom   12 type  3   force =     0.00008554    0.00003962   -0.00000000
     atom   13 type  4   force =    -0.00001553   -0.00006265    0.00000000
     atom   14 type  4   force =     0.00001553    0.00006265    0.00000000
     atom   15 type  4   force =    -0.00001553    0.00006265    0.00000000
     atom   16 type  4   force =     0.00001553   -0.00006265    0.00000000
     atom   17 type  4   force =     0.00004720   -0.00001098    0.00000000
     atom   18 type  4   force =    -0.00004720    0.00001098    0.00000000
     atom   19 type  4   force =     0.00004720    0.00001098    0.00000000
     atom   20 type  4   force =    -0.00004720   -0.00001098    0.00000000
     atom   21 type  4   force =    -0.00003911    0.00005762   -0.00004790
     atom   22 type  4   force =     0.00003911   -0.00005762    0.00004790
     atom   23 type  4   force =    -0.00003911   -0.00005762    0.00004790
     atom   24 type  4   force =     0.00003911    0.00005762   -0.00004790
     atom   25 type  4   force =     0.00003911   -0.00005762   -0.00004790
     atom   26 type  4   force =    -0.00003911    0.00005762    0.00004790
     atom   27 type  4   force =     0.00003911    0.00005762    0.00004790
     atom   28 type  4   force =    -0.00003911   -0.00005762   -0.00004790

     Total force =     0.000397     Total SCF correction =     0.000028


     Computing stress (Cartesian axis) and pressure


     negative rho (up, down):  0.000E+00 1.656E-03
          total   stress  (Ry/bohr**3)                   (kbar)     P=        0.02
   0.00000089   0.00000000   0.00000000            0.13        0.00        0.00
   0.00000000   0.00000041   0.00000000            0.00        0.06        0.00
   0.00000000   0.00000000  -0.00000081            0.00        0.00       -0.12

     Energy error            =      5.6E-07
     Gradient error          =      9.4E-05
     Cell gradient error     =      8.9E-07


     bfgs converged in  23 scf cycles and  22 bfgs steps
     (criteria: energy <  1.0E-05 Ry, force <  1.0E-04Ry/Bohr, cell <  5.0E-01kbar)

     End of BFGS Geometry Optimization

     Final enthalpy =   -2738.4692974751 Ry

     File ./out/oliv.bfgs deleted, as requested
Begin final coordinates
     new unit-cell volume =   2048.92575 a.u.^3 (   303.61947 Ang^3 )
     density =      3.76783 g/cm^3

CELL_PARAMETERS (angstrom)
   4.872526169   0.000000000   0.000000000
   0.000000000  10.463975000   0.000000000
   0.000000000   0.000000000   5.954958585

ATOMIC_POSITIONS (angstrom)
Fe            0.0000000000        0.0000000000        0.0000000000
Fe            2.4362630844        5.2319875001        0.0000000000
Fe           -0.0000000000       -0.0000000000        2.9774792927
Fe            2.4362630844        5.2319875001        2.9774792927
Mg            0.0533884196        2.8938206104        4.4662189390
Mg            4.8191377492        7.5701543897        1.4887396463
Mg            2.4896515040        2.3381668896        1.4887396463
Mg            2.3828746648        8.1258081105        4.4662189390
Si            0.3584156276        4.2233027378        1.4887396463
Si            4.5141105411        6.2406722623        4.4662189390
Si            2.7946787120        1.0086847623        4.4662189390
Si            2.0778474567        9.4552902378        1.4887396463
O             1.1536066344        1.0390933113        4.4662189390
O             3.7189195343        9.4248816888        1.4887396463
O             3.5898697188        4.1928941888        1.4887396463
O             1.2826564500        6.2710808113        4.4662189390
O             1.4608472742        0.5429136181        1.4887396463
O             3.4116788946        9.9210613820        4.4662189390
O             3.8971103585        4.6890738819        4.4662189390
O             0.9754158102        5.7749011182        1.4887396463
O             1.0854631361        3.5027068037        2.7863317705
O             3.7870630327        6.9612681964        3.1686268149
O             3.5217262205        1.7292806963        3.1686268149
O             1.3507999483        8.7346943038        2.7863317705
O             3.7870630327        6.9612681964        5.7638110631
O             1.0854631361        3.5027068037        0.1911475222
O             1.3507999483        8.7346943038        0.1911475222
O             3.5217262205        1.7292806963        5.7638110631
End final coordinates



     Writing output data file ./out/oliv.save/

     Final scf calculation at the relaxed structure.
     The G-vectors are recalculated for the final unit cell
     Results may differ from those at the preceding step.

     Parallelization info
     --------------------
     sticks:   dense  smooth     PW     G-vecs:    dense   smooth      PW
     Min         496     247     68                25988     9189    1352
     Max         497     249     69                25991     9192    1355
     Sum        6953    3473    965               363855   128659   18957



     bravais-lattice index     =            0
     lattice parameter (alat)  =       8.9841  a.u.
     unit-cell volume          =    2048.9257 (a.u.)^3
     number of atoms/cell      =           28
     number of atomic types    =            4
     number of electrons       =       216.00
     number of Kohn-Sham states=          130
     kinetic-energy cutoff     =      60.0000  Ry
     charge density cutoff     =     480.0000  Ry
     scf convergence threshold =      1.0E-09
     mixing beta               =       0.3000
     number of iterations used =            8  plain     mixing
     press convergence thresh. =      5.0E-01
     Exchange-correlation= SLA  PW   PBX  PBC
                           (   1   4   3   4   0   0   0)

     celldm(1)=   8.984136  celldm(2)=   0.000000  celldm(3)=   0.000000
     celldm(4)=   0.000000  celldm(5)=   0.000000  celldm(6)=   0.000000

     crystal axes: (cart. coord. in units of alat)
               a(1) = (   1.024889   0.000000   0.000000 )  
               a(2) = (   0.000000   2.200996   0.000000 )  
               a(3) = (   0.000000   0.000000   1.252568 )  

     reciprocal axes: (cart. coord. in units 2 pi/alat)
               b(1) = (  0.975716  0.000000  0.000000 )  
               b(2) = (  0.000000  0.454340  0.000000 )  
               b(3) = (  0.000000  0.000000  0.798360 )  


     PseudoPot. # 1 for Fe read from file:
     /mnt/c/Users/busta/Code/mqmqa/data/olivine/_dft/pseudo/Fe.pbe-spn-kjpaw_psl.1.0.0.UPF
     MD5 check sum: b6da53cdaab7fe9413c4d0a2c79db549
     Pseudo is Projector augmented-wave + core cor, Zval = 16.0
     Generated using &quot;atomic&quot; code by A. Dal Corso  v.6.3
     Shape of augmentation charge: PSQ
     Using radial grid of 1191 points,  6 beta functions with: 
                l(1) =   0
                l(2) =   0
                l(3) =   1
                l(4) =   1
                l(5) =   2
                l(6) =   2
     Q(r) pseudized with 0 coefficients 


     PseudoPot. # 2 for Mg read from file:
     /mnt/c/Users/busta/Code/mqmqa/data/olivine/_dft/pseudo/Mg.pbe-spnl-kjpaw_psl.1.0.0.UPF
     MD5 check sum: fda14e0d92a6a9a5ebed782e5a4b3067
     Pseudo is Projector augmented-wave + core cor, Zval = 10.0
     Generated using &quot;atomic&quot; code by A. Dal Corso  v.6.3
     Shape of augmentation charge: PSQ
     Using radial grid of 1129 points,  4 beta functions with: 
                l(1) =   0
                l(2) =   0
                l(3) =   1
                l(4) =   1
     Q(r) pseudized with 0 coefficients 


     PseudoPot. # 3 for Si read from file:
     /mnt/c/Users/busta/Code/mqmqa/data/olivine/_dft/pseudo/Si.pbe-n-kjpaw_psl.1.0.0.UPF
     MD5 check sum: c39c59da582df4a0d9f10159256ea34e
     Pseudo is Projector augmented-wave + core cor, Zval =  4.0
     Generated using &quot;atomic&quot; code by A. Dal Corso  v.6.3
     Shape of augmentation charge: PSQ
     Using radial grid of 1141 points,  6 beta functions with: 
                l(1) =   0
                l(2) =   0
                l(3) =   1
                l(4) =   1
                l(5) =   2
                l(6) =   2
     Q(r) pseudized with 0 coefficients 


     PseudoPot. # 4 for O  read from file:
     /mnt/c/Users/busta/Code/mqmqa/data/olivine/_dft/pseudo/O.pbe-n-kjpaw_psl.1.0.0.UPF
     MD5 check sum: e99d9cef9b487d1ca56f5b95ecd0fd7a
     Pseudo is Projector augmented-wave + core cor, Zval =  6.0
     Generated using &quot;atomic&quot; code by A. Dal Corso  v.6.3
     Shape of augmentation charge: PSQ
     Using radial grid of 1095 points,  4 beta functions with: 
                l(1) =   0
                l(2) =   0
                l(3) =   1
                l(4) =   1
     Q(r) pseudized with 0 coefficients 


     atomic species   valence    mass     pseudopotential
        Fe            16.00    55.84500     Fe( 1.00)
        Mg            10.00    24.30500     Mg( 1.00)
        Si             4.00    28.08500     Si( 1.00)
        O              6.00    15.99900     O ( 1.00)

     Starting magnetic structure 
     atomic species   magnetization
        Fe           0.251
        Mg           0.000
        Si           0.004
        O            0.016

      8 Sym. Ops., with inversion, found ( 6 have fractional translation)



   Cartesian axes

     site n.     atom                  positions (alat units)
         1           Fe  tau(   1) = (   0.0000000   0.0000000   0.0000000  )
         2           Fe  tau(   2) = (   0.5124444   1.1004980   0.0000000  )
         3           Fe  tau(   3) = (  -0.0000000  -0.0000000   0.6262840  )
         4           Fe  tau(   4) = (   0.5124444   1.1004980   0.6262840  )
         5           Mg  tau(   5) = (   0.0112297   0.6086872   0.9394260  )
         6           Mg  tau(   6) = (   1.0136590   1.5923088   0.3131420  )
         7           Mg  tau(   7) = (   0.5236741   0.4918108   0.3131420  )
         8           Mg  tau(   8) = (   0.5012146   1.7091852   0.9394260  )
         9           Si  tau(   9) = (   0.0753893   0.8883309   0.3131420  )
        10           Si  tau(  10) = (   0.9494995   1.3126651   0.9394260  )
        11           Si  tau(  11) = (   0.5878336   0.2121671   0.9394260  )
        12           Si  tau(  12) = (   0.4370551   1.9888289   0.3131420  )
        13           O   tau(  13) = (   0.2426500   0.2185632   0.9394260  )
        14           O   tau(  14) = (   0.7822388   1.9824327   0.3131420  )
        15           O   tau(  15) = (   0.7550944   0.8819348   0.3131420  )
        16           O   tau(  16) = (   0.2697944   1.3190612   0.9394260  )
        17           O   tau(  17) = (   0.3072751   0.1141966   0.3131420  )
        18           O   tau(  18) = (   0.7176137   2.0867993   0.9394260  )
        19           O   tau(  19) = (   0.8197195   0.9863014   0.9394260  )
        20           O   tau(  20) = (   0.2051693   1.2146946   0.3131420  )
        21           O   tau(  21) = (   0.2283167   0.7367605   0.5860779  )
        22           O   tau(  22) = (   0.7965721   1.4642355   0.6664900  )
        23           O   tau(  23) = (   0.7407611   0.3637375   0.6664900  )
        24           O   tau(  24) = (   0.2841277   1.8372585   0.5860779  )
        25           O   tau(  25) = (   0.7965721   1.4642355   1.2123619  )
        26           O   tau(  26) = (   0.2283167   0.7367605   0.0402060  )
        27           O   tau(  27) = (   0.2841277   1.8372585   0.0402060  )
        28           O   tau(  28) = (   0.7407611   0.3637375   1.2123619  )

     number of k points=     4  Gaussian smearing, width (Ry)=  0.0100
                       cart. coord. in units 2pi/alat
        k(    1) = (   0.0000000   0.0000000   0.0000000), wk =   0.2500000
        k(    2) = (   0.0000000   0.0000000  -0.3991799), wk =   0.2500000
        k(    3) = (  -0.4878578   0.0000000   0.0000000), wk =   0.2500000
        k(    4) = (  -0.4878578   0.0000000  -0.3991799), wk =   0.2500000

     Dense  grid:   363855 G-vectors     FFT dimensions: (  72, 144,  80)

     Smooth grid:   128659 G-vectors     FFT dimensions: (  48, 100,  60)

     Estimated max dynamical RAM per process >     160.81 MB

     Estimated total dynamical RAM >       2.20 GB

     Check: negative core charge=   -0.000005
     Generating pointlists ...

     Initial potential from superposition of free atoms

     starting charge  215.99230, renormalised to  216.00000
     Starting wfcs are  140 randomized atomic wfcs
     Checking if some PAW data can be deallocated... 

     total cpu time spent up to now is    17257.6 secs

     Self-consistent Calculation

     iteration #  1     ecut=    60.00 Ry     beta= 0.30
     Davidson diagonalization with overlap
     c_bands:  2 eigenvalues not converged
     c_bands:  2 eigenvalues not converged
     c_bands:  3 eigenvalues not converged
     c_bands:  2 eigenvalues not converged
     c_bands:  2 eigenvalues not converged
     ethr =  1.00E-06,  avg # of iterations = 38.6

     total cpu time spent up to now is    17539.1 secs

     total energy              =   -2737.68768712 Ry
     estimated scf accuracy    <       5.79706905 Ry

     total magnetization       =    16.00 Bohr mag/cell
     absolute magnetization    =    16.06 Bohr mag/cell

     iteration #  2     ecut=    60.00 Ry     beta= 0.30
     Davidson diagonalization with overlap
     ethr =  2.68E-03,  avg # of iterations =  1.0

     negative rho (up, down):  0.000E+00 2.131E-04

     total cpu time spent up to now is    17570.3 secs

     total energy              =   -2737.58431652 Ry
     estimated scf accuracy    <       1.16690288 Ry

     total magnetization       =    16.00 Bohr mag/cell
     absolute magnetization    =    16.05 Bohr mag/cell

     iteration #  3     ecut=    60.00 Ry     beta= 0.30
     Davidson diagonalization with overlap
     ethr =  5.40E-04,  avg # of iterations =  3.8

     negative rho (up, down):  0.000E+00 2.642E-04

     total cpu time spent up to now is    17617.3 secs

     total energy              =   -2738.34265493 Ry
     estimated scf accuracy    <       0.76875863 Ry

     total magnetization       =    16.00 Bohr mag/cell
     absolute magnetization    =    16.07 Bohr mag/cell

     iteration #  4     ecut=    60.00 Ry     beta= 0.30
     Davidson diagonalization with overlap
     ethr =  3.56E-04,  avg # of iterations =  1.5

     negative rho (up, down):  0.000E+00 1.415E-03

     total cpu time spent up to now is    17651.1 secs

     total energy              =   -2738.34081064 Ry
     estimated scf accuracy    <       0.18106418 Ry

     total magnetization       =    16.00 Bohr mag/cell
     absolute magnetization    =    16.07 Bohr mag/cell

     iteration #  5     ecut=    60.00 Ry     beta= 0.30
     Davidson diagonalization with overlap
     ethr =  8.38E-05,  avg # of iterations =  6.0

     negative rho (up, down):  0.000E+00 1.304E-03

     total cpu time spent up to now is    17721.2 secs

     total energy              =   -2738.39216108 Ry
     estimated scf accuracy    <       0.60786678 Ry

     total magnetization       =    16.00 Bohr mag/cell
     absolute magnetization    =    16.11 Bohr mag/cell

     iteration #  6     ecut=    60.00 Ry     beta= 0.30
     Davidson diagonalization with overlap
     ethr =  8.38E-05,  avg # of iterations =  4.2

     negative rho (up, down):  0.000E+00 1.414E-03

     total cpu time spent up to now is    17775.5 secs

     total energy              =   -2738.45070296 Ry
     estimated scf accuracy    <       0.04053123 Ry

     total magnetization       =    16.00 Bohr mag/cell
     absolute magnetization    =    16.13 Bohr mag/cell

     iteration #  7     ecut=    60.00 Ry     beta= 0.30
     Davidson diagonalization with overlap
     ethr =  1.88E-05,  avg # of iterations =  5.8

     negative rho (up, down):  0.000E+00 1.465E-03

     total cpu time spent up to now is    17832.9 secs

     total energy              =   -2738.47239063 Ry
     estimated scf accuracy    <       0.00811188 Ry

     total magnetization       =    16.00 Bohr mag/cell
     absolute magnetization    =    16.12 Bohr mag/cell

     iteration #  8     ecut=    60.00 Ry     beta= 0.30
     Davidson diagonalization with overlap
     ethr =  3.76E-06,  avg # of iterations =  7.8

     negative rho (up, down):  0.000E+00 1.498E-03

     total cpu time spent up to now is    17877.2 secs

     total energy              =   -2738.47155892 Ry
     estimated scf accuracy    <       0.00764289 Ry

     total magnetization       =    16.00 Bohr mag/cell
     absolute magnetization    =    16.13 Bohr mag/cell

     iteration #  9     ecut=    60.00 Ry     beta= 0.30
     Davidson diagonalization with overlap
     ethr =  3.54E-06,  avg # of iterations =  2.2

     negative rho (up, down):  0.000E+00 1.483E-03

     total cpu time spent up to now is    17906.7 secs

     total energy              =   -2738.47223901 Ry
     estimated scf accuracy    <       0.00110155 Ry

     total magnetization       =    16.00 Bohr mag/cell
     absolute magnetization    =    16.13 Bohr mag/cell

     iteration # 10     ecut=    60.00 Ry     beta= 0.30
     Davidson diagonalization with overlap
     ethr =  5.10E-07,  avg # of iterations =  5.8

     negative rho (up, down):  0.000E+00 1.485E-03

     total cpu time spent up to now is    17962.7 secs

     total energy              =   -2738.47313494 Ry
     estimated scf accuracy    <       0.00187471 Ry

     total magnetization       =    16.00 Bohr mag/cell
     absolute magnetization    =    16.14 Bohr mag/cell

     iteration # 11     ecut=    60.00 Ry     beta= 0.30
     Davidson diagonalization with overlap
     c_bands:  1 eigenvalues not converged
     ethr =  5.10E-07,  avg # of iterations =  5.2

     negative rho (up, down):  0.000E+00 1.484E-03

     total cpu time spent up to now is    17999.5 secs

     total energy              =   -2738.47332730 Ry
     estimated scf accuracy    <       0.00018374 Ry

     total magnetization       =    16.00 Bohr mag/cell
     absolute magnetization    =    16.14 Bohr mag/cell

     iteration # 12     ecut=    60.00 Ry     beta= 0.30
     Davidson diagonalization with overlap
     ethr =  8.51E-08,  avg # of iterations =  6.5

     negative rho (up, down):  0.000E+00 1.485E-03

     total cpu time spent up to now is    18078.3 secs

     total energy              =   -2738.47349477 Ry
     estimated scf accuracy    <       0.00056401 Ry

     total magnetization       =    16.00 Bohr mag/cell
     absolute magnetization    =    16.14 Bohr mag/cell

     iteration # 13     ecut=    60.00 Ry     beta= 0.30
     Davidson diagonalization with overlap
     ethr =  8.51E-08,  avg # of iterations =  4.8

     negative rho (up, down):  0.000E+00 1.482E-03

     total cpu time spent up to now is    18122.1 secs

     total energy              =   -2738.47353094 Ry
     estimated scf accuracy    <       0.00009063 Ry

     total magnetization       =    16.00 Bohr mag/cell
     absolute magnetization    =    16.14 Bohr mag/cell

     iteration # 14     ecut=    60.00 Ry     beta= 0.30
     Davidson diagonalization with overlap
     c_bands:  1 eigenvalues not converged
     ethr =  4.20E-08,  avg # of iterations =  7.9

     negative rho (up, down):  0.000E+00 1.483E-03

     total cpu time spent up to now is    18200.9 secs

     total energy              =   -2738.47353888 Ry
     estimated scf accuracy    <       0.00024537 Ry

     total magnetization       =    16.00 Bohr mag/cell
     absolute magnetization    =    16.14 Bohr mag/cell

     iteration # 15     ecut=    60.00 Ry     beta= 0.30
     Davidson diagonalization with overlap
     ethr =  4.20E-08,  avg # of iterations =  5.9

     negative rho (up, down):  0.000E+00 1.485E-03

     total cpu time spent up to now is    18260.9 secs

     total energy              =   -2738.47364100 Ry
     estimated scf accuracy    <       0.00001037 Ry

     total magnetization       =    16.00 Bohr mag/cell
     absolute magnetization    =    16.14 Bohr mag/cell

     iteration # 16     ecut=    60.00 Ry     beta= 0.30
     Davidson diagonalization with overlap
     ethr =  4.80E-09,  avg # of iterations =  4.8

     negative rho (up, down):  0.000E+00 1.487E-03

     total cpu time spent up to now is    18310.5 secs

     total energy              =   -2738.47365118 Ry
     estimated scf accuracy    <       0.00000582 Ry

     total magnetization       =    16.00 Bohr mag/cell
     absolute magnetization    =    16.14 Bohr mag/cell

     iteration # 17     ecut=    60.00 Ry     beta= 0.30
     Davidson diagonalization with overlap
     ethr =  2.69E-09,  avg # of iterations =  4.1

     negative rho (up, down):  0.000E+00 1.487E-03

     total cpu time spent up to now is    18355.8 secs

     total energy              =   -2738.47364741 Ry
     estimated scf accuracy    <       0.00001474 Ry

     total magnetization       =    16.00 Bohr mag/cell
     absolute magnetization    =    16.14 Bohr mag/cell

     iteration # 18     ecut=    60.00 Ry     beta= 0.30
     Davidson diagonalization with overlap
     ethr =  2.69E-09,  avg # of iterations =  4.5

     negative rho (up, down):  0.000E+00 1.488E-03

     total cpu time spent up to now is    18403.3 secs

     total energy              =   -2738.47364981 Ry
     estimated scf accuracy    <       0.00000034 Ry

     total magnetization       =    16.00 Bohr mag/cell
     absolute magnetization    =    16.14 Bohr mag/cell

     iteration # 19     ecut=    60.00 Ry     beta= 0.30
     Davidson diagonalization with overlap
     ethr =  1.55E-10,  avg # of iterations =  7.1

     negative rho (up, down):  0.000E+00 1.488E-03

     total cpu time spent up to now is    18489.2 secs

     total energy              =   -2738.47365069 Ry
     estimated scf accuracy    <       0.00000192 Ry

     total magnetization       =    16.00 Bohr mag/cell
     absolute magnetization    =    16.14 Bohr mag/cell

     iteration # 20     ecut=    60.00 Ry     beta= 0.30
     Davidson diagonalization with overlap
     ethr =  1.55E-10,  avg # of iterations =  2.0

     negative rho (up, down):  0.000E+00 1.488E-03

     total cpu time spent up to now is    18525.1 secs

     total energy              =   -2738.47365024 Ry
     estimated scf accuracy    <       0.00000101 Ry

     total magnetization       =    16.00 Bohr mag/cell
     absolute magnetization    =    16.14 Bohr mag/cell

     iteration # 21     ecut=    60.00 Ry     beta= 0.30
     Davidson diagonalization with overlap
     ethr =  1.55E-10,  avg # of iterations =  5.4

     negative rho (up, down):  0.000E+00 1.488E-03

     total cpu time spent up to now is    18589.7 secs

     total energy              =   -2738.47365063 Ry
     estimated scf accuracy    <       0.00000015 Ry

     total magnetization       =    16.00 Bohr mag/cell
     absolute magnetization    =    16.14 Bohr mag/cell

     iteration # 22     ecut=    60.00 Ry     beta= 0.30
     Davidson diagonalization with overlap
     ethr =  6.83E-11,  avg # of iterations =  2.0

     negative rho (up, down):  0.000E+00 1.488E-03

     total cpu time spent up to now is    18624.9 secs

     total energy              =   -2738.47365065 Ry
     estimated scf accuracy    <       0.00000002 Ry

     total magnetization       =    16.00 Bohr mag/cell
     absolute magnetization    =    16.14 Bohr mag/cell

     iteration # 23     ecut=    60.00 Ry     beta= 0.30
     Davidson diagonalization with overlap
     ethr =  1.13E-11,  avg # of iterations =  6.4

     negative rho (up, down):  0.000E+00 1.488E-03

     total cpu time spent up to now is    18678.5 secs

     total energy              =   -2738.47365068 Ry
     estimated scf accuracy    <       0.00000002 Ry

     total magnetization       =    16.00 Bohr mag/cell
     absolute magnetization    =    16.14 Bohr mag/cell

     iteration # 24     ecut=    60.00 Ry     beta= 0.30
     Davidson diagonalization with overlap
     ethr =  8.45E-12,  avg # of iterations =  2.0

     negative rho (up, down):  0.000E+00 1.488E-03

     total cpu time spent up to now is    18716.4 secs

     total energy              =   -2738.47365068 Ry
     estimated scf accuracy    <          4.0E-09 Ry

     total magnetization       =    16.00 Bohr mag/cell
     absolute magnetization    =    16.14 Bohr mag/cell

     iteration # 25     ecut=    60.00 Ry     beta= 0.30
     Davidson diagonalization with overlap
     ethr =  1.87E-12,  avg # of iterations =  6.5

     negative rho (up, down):  0.000E+00 1.488E-03

     total cpu time spent up to now is    18797.1 secs

     total energy              =   -2738.47365069 Ry
     estimated scf accuracy    <       0.00000001 Ry

     total magnetization       =    16.00 Bohr mag/cell
     absolute magnetization    =    16.14 Bohr mag/cell

     iteration # 26     ecut=    60.00 Ry     beta= 0.30
     Davidson diagonalization with overlap
     ethr =  1.87E-12,  avg # of iterations =  2.0

     negative rho (up, down):  0.000E+00 1.488E-03

     total cpu time spent up to now is    18830.2 secs

     total energy              =   -2738.47365069 Ry
     estimated scf accuracy    <          5.3E-09 Ry

     total magnetization       =    16.00 Bohr mag/cell
     absolute magnetization    =    16.14 Bohr mag/cell

     iteration # 27     ecut=    60.00 Ry     beta= 0.30
     Davidson diagonalization with overlap
     ethr =  1.87E-12,  avg # of iterations =  4.8

     negative rho (up, down):  0.000E+00 1.488E-03

     Magnetic moment per site:
     atom:    1    charge:   13.3536    magn:    3.3519    constr:    0.0000
     atom:    2    charge:   13.3536    magn:    3.3519    constr:    0.0000
     atom:    3    charge:   13.3536    magn:    3.3519    constr:    0.0000
     atom:    4    charge:   13.3536    magn:    3.3519    constr:    0.0000
     atom:    5    charge:    8.0831    magn:    0.0010    constr:    0.0000
     atom:    6    charge:    8.0831    magn:    0.0010    constr:    0.0000
     atom:    7    charge:    8.0831    magn:    0.0010    constr:    0.0000
     atom:    8    charge:    8.0831    magn:    0.0010    constr:    0.0000
     atom:    9    charge:    0.3882    magn:    0.0014    constr:    0.0000
     atom:   10    charge:    0.3882    magn:    0.0014    constr:    0.0000
     atom:   11    charge:    0.3882    magn:    0.0014    constr:    0.0000
     atom:   12    charge:    0.3882    magn:    0.0014    constr:    0.0000
     atom:   13    charge:    4.0372    magn:    0.0789    constr:    0.0000
     atom:   14    charge:    4.0372    magn:    0.0789    constr:    0.0000
     atom:   15    charge:    4.0372    magn:    0.0789    constr:    0.0000
     atom:   16    charge:    4.0372    magn:    0.0789    constr:    0.0000
     atom:   17    charge:    4.0317    magn:    0.0833    constr:    0.0000
     atom:   18    charge:    4.0317    magn:    0.0833    constr:    0.0000
     atom:   19    charge:    4.0317    magn:    0.0833    constr:    0.0000
     atom:   20    charge:    4.0317    magn:    0.0833    constr:    0.0000
     atom:   21    charge:    4.0354    magn:    0.0446    constr:    0.0000
     atom:   22    charge:    4.0354    magn:    0.0446    constr:    0.0000
     atom:   23    charge:    4.0354    magn:    0.0446    constr:    0.0000
     atom:   24    charge:    4.0354    magn:    0.0446    constr:    0.0000
     atom:   25    charge:    4.0354    magn:    0.0446    constr:    0.0000
     atom:   26    charge:    4.0354    magn:    0.0446    constr:    0.0000
     atom:   27    charge:    4.0354    magn:    0.0446    constr:    0.0000
     atom:   28    charge:    4.0354    magn:    0.0446    constr:    0.0000

     total cpu time spent up to now is    18875.6 secs

     End of self-consistent calculation

 ------ SPIN UP ------------


          k = 0.0000 0.0000 0.0000 ( 16061 PWs)   bands (ev):

   -80.2215 -80.2215 -80.2191 -80.2190 -65.7905 -65.7905 -65.7904 -65.7904
   -46.7863 -46.7863 -46.7810 -46.7810 -46.1586 -46.1585 -46.1553 -46.1552
   -45.8996 -45.8996 -45.8643 -45.8643 -32.5602 -32.5601 -32.5578 -32.5577
   -32.5374 -32.5374 -32.5371 -32.5370 -32.5196 -32.5196 -32.5161 -32.5161
   -12.1395 -11.9208 -11.6366 -11.4801 -10.5765 -10.5481 -10.4986 -10.4431
   -10.3438 -10.2135 -10.1585 -10.1481 -10.1258 -10.0707  -9.9538  -9.8784
     0.2391   0.2997   0.8328   0.9382   0.9898   1.0008   1.6826   1.8846
     1.9272   2.0203   2.2293   2.3229   2.3518   3.1420   3.1483   3.2909
     3.3652   3.4422   3.4752   3.5447   3.6452   3.6999   3.8057   3.8089
     3.8256   3.8586   4.0258   4.0293   4.2242   4.2424   4.3054   4.3915
     4.5410   4.5605   4.5622   4.8060   4.9208   5.0701   5.1403   5.2051
     5.2174   5.2836   5.4723   5.6629   5.7254   5.7892   5.8052   5.8710
     5.9419   5.9631   6.1673   6.2252   6.2386   6.3646   6.8614   6.8736
     6.9410   7.0189   7.2771   7.3253   7.7397   7.9340   7.9535   7.9742
     7.9921   8.1745   8.2363   8.2725  10.8096  12.6012  13.3755  14.6702
    14.8334  15.4548  15.5680  15.5825  15.5860  15.7828  15.8584  16.0150
    16.1059  16.3435

          k = 0.0000 0.0000-0.3992 ( 16108 PWs)   bands (ev):

   -80.2203 -80.2203 -80.2203 -80.2203 -65.7904 -65.7904 -65.7904 -65.7904
   -46.7837 -46.7837 -46.7836 -46.7836 -46.1569 -46.1569 -46.1569 -46.1569
   -45.8821 -45.8821 -45.8820 -45.8820 -32.5590 -32.5590 -32.5589 -32.5589
   -32.5372 -32.5372 -32.5372 -32.5372 -32.5179 -32.5179 -32.5179 -32.5179
   -11.8367 -11.8367 -11.7492 -11.7492 -10.5394 -10.5394 -10.5084 -10.5084
   -10.3301 -10.3301 -10.1668 -10.1668 -10.0213 -10.0213  -9.9495  -9.9495
     0.5900   0.5900   0.6425   0.6425   1.5175   1.5175   1.6347   1.6347
     2.2181   2.2181   2.5826   2.5826   2.7517   2.7517   3.0879   3.0879
     3.1667   3.1667   3.2906   3.2906   3.5721   3.5721   3.8737   3.8737
     3.9400   3.9400   3.9566   3.9566   4.1316   4.1316   4.2300   4.2300
     4.4910   4.4910   4.7355   4.7355   4.8089   4.8089   4.9985   4.9985
     5.0772   5.0772   5.2309   5.2309   5.6070   5.6070   5.6593   5.6593
     6.1864   6.1864   6.2795   6.2795   6.6974   6.6974   6.7558   6.7558
     7.0809   7.0809   7.1489   7.1489   7.8614   7.8614   7.8757   7.8757
     8.0585   8.0585   8.0631   8.0631  12.6954  12.6954  13.7151  13.7151
    14.5496  14.5496  15.8150  15.8150  15.8296  15.8296  16.7278  16.7278
    16.8332  16.8332

          k =-0.4879 0.0000 0.0000 ( 16110 PWs)   bands (ev):

   -80.2215 -80.2215 -80.2191 -80.2191 -65.7904 -65.7904 -65.7904 -65.7904
   -46.7863 -46.7863 -46.7811 -46.7811 -46.1586 -46.1586 -46.1553 -46.1553
   -45.8997 -45.8997 -45.8643 -45.8643 -32.5590 -32.5590 -32.5590 -32.5590
   -32.5373 -32.5373 -32.5372 -32.5372 -32.5179 -32.5179 -32.5179 -32.5179
   -11.7363 -11.7363 -11.4313 -11.4313 -10.9042 -10.9042 -10.6458 -10.6458
   -10.3463 -10.3463 -10.1105 -10.1105 -10.0196 -10.0196  -9.9971  -9.9971
     0.4643   0.4643   0.5984   0.5984   2.0013   2.0013   2.0058   2.0058
     2.3037   2.3037   2.4263   2.4263   2.5483   2.5483   2.7026   2.7026
     2.9394   2.9394   2.9993   2.9993   3.0471   3.0471   3.6157   3.6157
     4.0395   4.0395   4.2140   4.2140   4.2551   4.2551   4.5154   4.5154
     4.6643   4.6643   4.7358   4.7358   4.8575   4.8575   5.0953   5.0953
     5.2451   5.2451   5.6664   5.6664   5.8441   5.8441   6.0321   6.0321
     6.1623   6.1623   6.2982   6.2982   6.3752   6.3752   6.8864   6.8864
     6.9117   6.9117   7.2785   7.2785   7.5410   7.5410   7.9911   7.9911
     8.1739   8.1739   8.2303   8.2303  13.3511  13.3511  14.0458  14.0458
    14.3063  14.3063  14.8313  14.8313  15.0905  15.0905  15.3438  15.3438
    15.9161  15.9161

          k =-0.4879 0.0000-0.3992 ( 16092 PWs)   bands (ev):

   -80.2203 -80.2203 -80.2203 -80.2203 -65.7904 -65.7904 -65.7904 -65.7904
   -46.7836 -46.7836 -46.7836 -46.7836 -46.1569 -46.1569 -46.1569 -46.1569
   -45.8820 -45.8820 -45.8820 -45.8820 -32.5590 -32.5590 -32.5590 -32.5590
   -32.5372 -32.5372 -32.5372 -32.5372 -32.5178 -32.5178 -32.5178 -32.5178
   -11.5884 -11.5884 -11.5474 -11.5474 -10.7831 -10.7831 -10.7686 -10.7686
   -10.3121 -10.3121 -10.2141 -10.2141 -10.0172 -10.0172  -9.9983  -9.9983
     0.6384   0.6384   0.7183   0.7183   1.9607   1.9607   2.2512   2.2512
     2.3768   2.3768   2.4965   2.4965   2.5808   2.5808   2.7085   2.7085
     3.0528   3.0528   3.0634   3.0634   3.4232   3.4232   3.5083   3.5083
     3.6167   3.6167   3.9182   3.9182   4.4012   4.4012   4.5195   4.5195
     4.6005   4.6005   4.6884   4.6884   4.7290   4.7290   4.8994   4.8994
     5.2382   5.2382   5.3591   5.3591   5.5181   5.5181   5.6796   5.6796
     6.2418   6.2418   6.2806   6.2806   6.7624   6.7624   6.7687   6.7687
     7.0545   7.0545   7.0896   7.0896   7.7765   7.7765   7.8001   7.8001
     8.0966   8.0966   8.1035   8.1035  14.2469  14.2469  14.2678  14.2678
    14.8577  14.8577  14.9168  14.9168  15.2610  15.2610  15.4928  15.4928
    16.4013  16.4023

 ------ SPIN DOWN ----------


          k = 0.0000 0.0000 0.0000 ( 16061 PWs)   bands (ev):

   -76.0902 -76.0902 -76.0875 -76.0874 -65.7897 -65.7897 -65.7896 -65.7896
   -42.3783 -42.3782 -42.3708 -42.3708 -42.2027 -42.2026 -42.1973 -42.1972
   -42.1666 -42.1666 -42.1250 -42.1249 -32.5596 -32.5596 -32.5572 -32.5572
   -32.5364 -32.5363 -32.5361 -32.5360 -32.5185 -32.5185 -32.5150 -32.5150
   -12.0152 -11.7888 -11.5236 -11.3578 -10.4191 -10.3805 -10.3366 -10.2758
   -10.2170 -10.0848 -10.0506 -10.0190  -9.9886  -9.9786  -9.8549  -9.7851
     0.4502   0.4633   0.9369   1.0260   1.1231   1.2246   1.9536   1.9789
     2.0279   2.3600   2.4366   2.5309   2.6230   3.2231   3.2952   3.4655
     3.6832   3.8404   3.9800   4.0373   4.0505   4.1089   4.1515   4.1531
     4.1635   4.2668   4.3879   4.4056   4.5475   4.7068   4.7090   4.7749
     4.9181   5.0139   5.0996   5.2117   5.2538   5.2556   5.3029   5.3856
     5.5887   5.7627   5.8812   5.9091   5.9147   5.9176   6.0451   6.0780
     8.8833   8.9225   9.2076   9.3020   9.6218   9.6588   9.8659   9.9710
    10.0191  10.0856  10.3805  10.3919  11.1262  11.1642  11.2086  11.2391
    11.3196  11.3775  11.3798  11.3906  11.4475  13.1092  13.5071  14.8095
    15.0137  15.7325  15.7872  15.8022  15.8700  15.8980  16.0300  16.2540
    16.2780  16.9136

          k = 0.0000 0.0000-0.3992 ( 16108 PWs)   bands (ev):

   -76.0889 -76.0889 -76.0889 -76.0889 -65.7897 -65.7897 -65.7897 -65.7897
   -42.3745 -42.3745 -42.3745 -42.3745 -42.1997 -42.1997 -42.1997 -42.1997
   -42.1463 -42.1463 -42.1462 -42.1462 -32.5584 -32.5584 -32.5584 -32.5584
   -32.5362 -32.5362 -32.5362 -32.5362 -32.5168 -32.5168 -32.5168 -32.5168
   -11.7126 -11.7126 -11.6242 -11.6242 -10.3760 -10.3760 -10.3450 -10.3450
   -10.2153 -10.2153 -10.0417 -10.0417  -9.9188  -9.9188  -9.8380  -9.8380
     0.7450   0.7450   0.8135   0.8135   1.6886   1.6886   1.7554   1.7554
     2.3966   2.3966   2.7942   2.7942   2.9915   2.9915   3.3129   3.3129
     3.5007   3.5007   3.7325   3.7325   3.9864   3.9864   4.1100   4.1100
     4.2855   4.2855   4.3595   4.3595   4.5869   4.5869   4.6191   4.6191
     5.0068   5.0068   5.0126   5.0126   5.2460   5.2460   5.3157   5.3157
     5.3236   5.3236   5.5905   5.5905   5.9296   5.9296   5.9468   5.9468
     9.3734   9.3734   9.4183   9.4183   9.7075   9.7075   9.7116   9.7116
     9.9927   9.9927  10.0694  10.0694  11.1354  11.1354  11.1588  11.1588
    11.3653  11.3653  11.3974  11.3974  13.0373  13.0373  14.1193  14.1193
    14.7462  14.7462  16.0536  16.0536  16.1548  16.1548  17.0054  17.0054
    17.0935  17.0936

          k =-0.4879 0.0000 0.0000 ( 16110 PWs)   bands (ev):

   -76.0903 -76.0903 -76.0876 -76.0876 -65.7897 -65.7897 -65.7897 -65.7897
   -42.3782 -42.3782 -42.3709 -42.3709 -42.2027 -42.2027 -42.1973 -42.1973
   -42.1666 -42.1666 -42.1250 -42.1250 -32.5585 -32.5585 -32.5585 -32.5585
   -32.5362 -32.5362 -32.5362 -32.5362 -32.5168 -32.5168 -32.5168 -32.5168
   -11.6165 -11.6165 -11.3117 -11.3117 -10.7374 -10.7374 -10.4989 -10.4989
   -10.2016 -10.2016  -9.9711  -9.9711  -9.9215  -9.9215  -9.9044  -9.9044
     0.6163   0.6163   0.6823   0.6823   2.1770   2.1770   2.2273   2.2273
     2.5507   2.5507   2.6332   2.6332   2.8607   2.8607   2.9745   2.9745
     3.1887   3.1887   3.2467   3.2467   3.4074   3.4074   3.8449   3.8449
     4.3659   4.3659   4.6273   4.6273   4.8479   4.8479   4.8920   4.8920
     5.0682   5.0682   5.1640   5.1640   5.3903   5.3903   5.4063   5.4063
     5.6914   5.6914   5.8514   5.8514   6.0005   6.0005   6.3517   6.3517
     8.9466   8.9466   9.2149   9.2149   9.6371   9.6371   9.9400   9.9400
    10.1188  10.1188  10.4282  10.4282  10.8960  10.8960  11.1509  11.1509
    11.4520  11.4520  11.4663  11.4663  13.5875  13.5875  14.2444  14.2444
    14.7176  14.7176  15.0069  15.0069  15.2455  15.2455  15.6455  15.6455
    16.4989  16.4989

          k =-0.4879 0.0000-0.3992 ( 16092 PWs)   bands (ev):

   -76.0889 -76.0889 -76.0889 -76.0889 -65.7897 -65.7897 -65.7897 -65.7897
   -42.3744 -42.3744 -42.3744 -42.3744 -42.1997 -42.1997 -42.1997 -42.1997
   -42.1462 -42.1462 -42.1462 -42.1462 -32.5585 -32.5585 -32.5585 -32.5585
   -32.5362 -32.5362 -32.5362 -32.5362 -32.5167 -32.5167 -32.5167 -32.5167
   -11.4674 -11.4674 -11.4246 -11.4246 -10.6243 -10.6243 -10.6161 -10.6161
   -10.1757 -10.1757 -10.0882 -10.0882  -9.9089  -9.9089  -9.8964  -9.8964
     0.7589   0.7589   0.8524   0.8524   2.2756   2.2756   2.5093   2.5093
     2.6362   2.6362   2.7392   2.7392   2.7606   2.7606   2.9464   2.9464
     3.2526   3.2526   3.2736   3.2736   3.6583   3.6583   3.7212   3.7212
     3.8924   3.8924   4.2980   4.2980   4.7814   4.7814   4.8309   4.8309
     4.9501   4.9501   5.3192   5.3192   5.3610   5.3610   5.4472   5.4472
     5.6090   5.6090   5.6970   5.6970   5.8926   5.8926   5.9331   5.9331
     9.3505   9.3505   9.3714   9.3714   9.7650   9.7650   9.7759   9.7759
    10.0320  10.0320  10.0467  10.0467  11.0026  11.0026  11.0127  11.0127
    11.2884  11.2884  11.2907  11.2907  14.6017  14.6017  14.6595  14.6595
    15.2160  15.2160  15.2470  15.2470  15.5131  15.5131  15.8542  15.8542
    16.5170  16.5170

     the Fermi energy is     9.5232 ev

!    total energy              =   -2738.47365069 Ry

     total all-electron energy =    -16515.674561 Ry
     estimated scf accuracy    <          2.2E-10 Ry
     smearing contrib. (-TS)   =      -0.00386498 Ry
     internal energy E=F+TS    =   -2738.46978571 Ry

     The total energy is F=E-TS. E is the sum of the following terms:
     one-electron contribution =   -1243.53493154 Ry
     hartree contribution      =     722.38799472 Ry
     xc contribution           =    -328.22818203 Ry
     ewald contribution        =   -1202.61221394 Ry
     one-center paw contrib.   =    -686.48245292 Ry

     total magnetization       =    16.00 Bohr mag/cell
     absolute magnetization    =    16.14 Bohr mag/cell

     convergence has been achieved in  27 iterations

     negative rho (up, down):  0.000E+00 1.488E-03

     Forces acting on atoms (cartesian axes, Ry/au):

     atom    1 type  1   force =     0.00000000    0.00000000   -0.00000000
     atom    2 type  1   force =     0.00000000   -0.00000000    0.00000000
     atom    3 type  1   force =     0.00000000   -0.00000000    0.00000000
     atom    4 type  1   force =     0.00000000    0.00000000    0.00000000
     atom    5 type  2   force =    -0.00006096    0.00005241    0.00000000
     atom    6 type  2   force =     0.00006096   -0.00005241   -0.00000000
     atom    7 type  2   force =    -0.00006096   -0.00005241    0.00000000
     atom    8 type  2   force =     0.00006096    0.00005241    0.00000000
     atom    9 type  3   force =    -0.00007427    0.00003313    0.00000000
     atom   10 type  3   force =     0.00007427   -0.00003313    0.00000000
     atom   11 type  3   force =    -0.00007427   -0.00003313   -0.00000000
     atom   12 type  3   force =     0.00007427    0.00003313    0.00000000
     atom   13 type  4   force =    -0.00000815   -0.00003266    0.00000000
     atom   14 type  4   force =     0.00000815    0.00003266    0.00000000
     atom   15 type  4   force =    -0.00000815    0.00003266    0.00000000
     atom   16 type  4   force =     0.00000815   -0.00003266    0.00000000
     atom   17 type  4   force =     0.00008716    0.00004967    0.00000000
     atom   18 type  4   force =    -0.00008716   -0.00004967    0.00000000
     atom   19 type  4   force =     0.00008716   -0.00004967    0.00000000
     atom   20 type  4   force =    -0.00008716    0.00004967    0.00000000
     atom   21 type  4   force =    -0.00007181    0.00002696   -0.00003388
     atom   22 type  4   force =     0.00007181   -0.00002696    0.00003388
     atom   23 type  4   force =    -0.00007181   -0.00002696    0.00003388
     atom   24 type  4   force =     0.00007181    0.00002696   -0.00003388
     atom   25 type  4   force =     0.00007181   -0.00002696   -0.00003388
     atom   26 type  4   force =    -0.00007181    0.00002696    0.00003388
     atom   27 type  4   force =     0.00007181    0.00002696    0.00003388
     atom   28 type  4   force =    -0.00007181   -0.00002696   -0.00003388

     Total force =     0.000392     Total SCF correction =     0.000005


     Computing stress (Cartesian axis) and pressure


     negative rho (up, down):  0.000E+00 1.488E-03
          total   stress  (Ry/bohr**3)                   (kbar)     P=       -0.69
  -0.00000469   0.00000000   0.00000000           -0.69        0.00        0.00
   0.00000000  -0.00000492   0.00000000            0.00       -0.72        0.00
   0.00000000   0.00000000  -0.00000444            0.00        0.00       -0.65


     Writing output data file ./out/oliv.save/

     init_run     :     36.21s CPU     37.19s WALL (       2 calls)
     electrons    :  17665.81s CPU  17909.50s WALL (      24 calls)
     update_pot   :    144.94s CPU    145.33s WALL (      22 calls)
     forces       :    292.89s CPU    295.76s WALL (      24 calls)
     stress       :    435.11s CPU    441.17s WALL (      24 calls)

     Called by init_run:
     wfcinit      :     22.88s CPU     23.23s WALL (       2 calls)
     potinit      :      5.95s CPU      6.17s WALL (       2 calls)
     hinit0       :      5.39s CPU      5.49s WALL (       2 calls)

     Called by electrons:
     c_bands      :  15718.33s CPU  15872.53s WALL (     362 calls)
     sum_band     :   1322.37s CPU   1375.12s WALL (     362 calls)
     v_of_rho     :     58.71s CPU     60.92s WALL (     376 calls)
     newd         :    263.18s CPU    292.65s WALL (     376 calls)
     PAW_pot      :    339.84s CPU    340.20s WALL (     398 calls)
     mix_rho      :     14.51s CPU     14.87s WALL (     362 calls)

     Called by c_bands:
     init_us_2    :     13.36s CPU     13.78s WALL (    6368 calls)
     cegterg      :  15619.70s CPU  15760.92s WALL (    2928 calls)

     Called by *egterg:
     cdiaghg      :   1250.90s CPU   1257.59s WALL (   18418 calls)
     h_psi        :   5607.31s CPU   5725.94s WALL (   18722 calls)
     s_psi        :   1309.68s CPU   1310.51s WALL (   18722 calls)
     g_psi        :     14.91s CPU     14.96s WALL (   15778 calls)

     Called by h_psi:
     h_psi:calbec :   2034.53s CPU   2040.58s WALL (   18722 calls)
     vloc_psi     :   2228.50s CPU   2340.41s WALL (   18722 calls)
     add_vuspsi   :   1339.03s CPU   1339.78s WALL (   18722 calls)

     General routines
     calbec       :   2960.19s CPU   2968.34s WALL (   22754 calls)
     fft          :     79.31s CPU     82.51s WALL (   10354 calls)
     ffts         :      2.84s CPU      3.03s WALL (    1476 calls)
     fftw         :   2482.95s CPU   2606.31s WALL ( 2776304 calls)
     interpolate  :      4.88s CPU      5.24s WALL (     752 calls)

     Parallel routines
     fft_scatt_xy :    143.31s CPU    152.50s WALL ( 2788134 calls)
     fft_scatt_yz :   2018.00s CPU   2112.61s WALL ( 2788134 calls)

     PWSCF        :      5h10m CPU      5h15m WALL


   This run was terminated on:   3:38:39  28Aug2026            

=------------------------------------------------------------------------------=
   JOB DONE.
=------------------------------------------------------------------------------=
