
     Program PWSCF v.6.7MaX starts on 27Aug2026 at 11:53: 2 

     This program is part of the open-source Quantum ESPRESSO suite
     for quantum simulation of materials; please cite
         "P. Giannozzi et al., J. Phys.:Condens. Matter 21 395502 (2009);
         "P. Giannozzi et al., J. Phys.:Condens. Matter 29 465901 (2017);
          URL http://www.quantum-espresso.org", 
     in publications or presentations arising from this work. More details at
     http://www.quantum-espresso.org/quote

     Parallel version (MPI), running on    14 processors

     MPI processes distributed on     1 nodes
     R & G space division:  proc/nbgrp/npool/nimage =      14
     Reading input from pw.in
Warning: card &FCP ignored
Warning: card / ignored
Warning: card &RISM ignored
Warning: card / ignored

     Current dimensions of program PWSCF are:
     Max number of different atomic species (ntypx) = 10
     Max number of k-points (npk) =  40000
     Max angular momentum in pseudopotentials (lmaxx) =  3
     file Fe.pbe-spn-kjpaw_psl.1.0.0.UPF: wavefunction(s)  3P 3D renormalized
     file Si.pbe-n-kjpaw_psl.1.0.0.UPF: wavefunction(s)  3S 3P renormalized
     file O.pbe-n-kjpaw_psl.1.0.0.UPF: wavefunction(s)  2S 2P renormalized

     Subspace diagonalization in iterative solution of the eigenvalue problem:
     one sub-group per band group will be used
     scalapack distributed-memory algorithm (size of sub-group:  3*  3 procs)

     Message from routine setup:
     using ibrav=0 with symmetry is DISCOURAGED, use correct ibrav instead

     Parallelization info
     --------------------
     sticks:   dense  smooth     PW     G-vecs:    dense   smooth      PW
     Min         473     236     66                24842     8786    1300
     Max         475     237     67                24844     8789    1302
     Sum        6629    3311    929               347803   123029   18213



     bravais-lattice index     =            0
     lattice parameter (alat)  =       8.9841  a.u.
     unit-cell volume          =    1959.1283 (a.u.)^3
     number of atoms/cell      =           28
     number of atomic types    =            3
     number of electrons       =       240.00
     number of Kohn-Sham states=          144
     kinetic-energy cutoff     =      60.0000  Ry
     charge density cutoff     =     480.0000  Ry
     scf convergence threshold =      1.0E-07
     mixing beta               =       0.3000
     number of iterations used =            8  plain     mixing
     energy convergence thresh.=      1.0E-05
     force convergence thresh. =      1.0E-04
     press convergence thresh. =      5.0E-01
     Exchange-correlation= SLA  PW   PBX  PBC
                           (   1   4   3   4   0   0   0)
     nstep                     =          250


     celldm(1)=   8.984136  celldm(2)=   0.000000  celldm(3)=   0.000000
     celldm(4)=   0.000000  celldm(5)=   0.000000  celldm(6)=   0.000000

     crystal axes: (cart. coord. in units of alat)
               a(1) = (   1.000000   0.000000   0.000000 )  
               a(2) = (   0.000000   2.146481   0.000000 )  
               a(3) = (   0.000000   0.000000   1.258656 )  

     reciprocal axes: (cart. coord. in units 2 pi/alat)
               b(1) = (  1.000000  0.000000  0.000000 )  
               b(2) = (  0.000000  0.465879  0.000000 )  
               b(3) = (  0.000000  0.000000  0.794499 )  


     PseudoPot. # 1 for Fe read from file:
     /mnt/c/Users/busta/Code/mqmqa/data/olivine/_dft/pseudo/Fe.pbe-spn-kjpaw_psl.1.0.0.UPF
     MD5 check sum: b6da53cdaab7fe9413c4d0a2c79db549
     Pseudo is Projector augmented-wave + core cor, Zval = 16.0
     Generated using &quot;atomic&quot; code by A. Dal Corso  v.6.3
     Shape of augmentation charge: PSQ
     Using radial grid of 1191 points,  6 beta functions with: 
                l(1) =   0
                l(2) =   0
                l(3) =   1
                l(4) =   1
                l(5) =   2
                l(6) =   2
     Q(r) pseudized with 0 coefficients 


     PseudoPot. # 2 for Si read from file:
     /mnt/c/Users/busta/Code/mqmqa/data/olivine/_dft/pseudo/Si.pbe-n-kjpaw_psl.1.0.0.UPF
     MD5 check sum: c39c59da582df4a0d9f10159256ea34e
     Pseudo is Projector augmented-wave + core cor, Zval =  4.0
     Generated using &quot;atomic&quot; code by A. Dal Corso  v.6.3
     Shape of augmentation charge: PSQ
     Using radial grid of 1141 points,  6 beta functions with: 
                l(1) =   0
                l(2) =   0
                l(3) =   1
                l(4) =   1
                l(5) =   2
                l(6) =   2
     Q(r) pseudized with 0 coefficients 


     PseudoPot. # 3 for O  read from file:
     /mnt/c/Users/busta/Code/mqmqa/data/olivine/_dft/pseudo/O.pbe-n-kjpaw_psl.1.0.0.UPF
     MD5 check sum: e99d9cef9b487d1ca56f5b95ecd0fd7a
     Pseudo is Projector augmented-wave + core cor, Zval =  6.0
     Generated using &quot;atomic&quot; code by A. Dal Corso  v.6.3
     Shape of augmentation charge: PSQ
     Using radial grid of 1095 points,  4 beta functions with: 
                l(1) =   0
                l(2) =   0
                l(3) =   1
                l(4) =   1
     Q(r) pseudized with 0 coefficients 


     atomic species   valence    mass     pseudopotential
        Fe            16.00    55.84500     Fe( 1.00)
        Si             4.00    28.08500     Si( 1.00)
        O              6.00    15.99900     O ( 1.00)

     Starting magnetic structure 
     atomic species   magnetization
        Fe           0.500
        Si           0.000
        O            0.000

      8 Sym. Ops., with inversion, found ( 6 have fractional translation)



   Cartesian axes

     site n.     atom                  positions (alat units)
         1           Fe  tau(   1) = (   0.0000000   0.0000000   0.0000000  )
         2           Fe  tau(   2) = (   0.5000000   1.0732405   0.0000000  )
         3           Fe  tau(   3) = (   0.0000000   0.0000000   0.6293278  )
         4           Fe  tau(   4) = (   0.5000000   1.0732405   0.6293278  )
         5           Fe  tau(   5) = (   0.0147000   0.5941459   0.9439916  )
         6           Fe  tau(   6) = (   0.9853000   1.5523351   0.3146639  )
         7           Fe  tau(   7) = (   0.5147000   0.4790946   0.3146639  )
         8           Fe  tau(   8) = (   0.4853000   1.6673864   0.9439916  )
         9           Si  tau(   9) = (   0.0701000   0.8607389   0.3146639  )
        10           Si  tau(  10) = (   0.9299000   1.2857421   0.9439916  )
        11           Si  tau(  11) = (   0.5701000   0.2125016   0.9439916  )
        12           Si  tau(  12) = (   0.4299000   1.9339794   0.3146639  )
        13           O   tau(  13) = (   0.2461000   0.1833095   0.9439916  )
        14           O   tau(  14) = (   0.7539000   1.9631715   0.3146639  )
        15           O   tau(  15) = (   0.7461000   0.8899310   0.3146639  )
        16           O   tau(  16) = (   0.2539000   1.2565500   0.9439916  )
        17           O   tau(  17) = (   0.2809000   0.1047483   0.3146639  )
        18           O   tau(  18) = (   0.7191000   2.0417327   0.9439916  )
        19           O   tau(  19) = (   0.7809000   0.9684922   0.9439916  )
        20           O   tau(  20) = (   0.2191000   1.1779888   0.3146639  )
        21           O   tau(  21) = (   0.2222000   0.7424678   0.5588430  )
        22           O   tau(  22) = (   0.7778000   1.4040132   0.6998125  )
        23           O   tau(  23) = (   0.7222000   0.3307727   0.6998125  )
        24           O   tau(  24) = (   0.2778000   1.8157083   0.5588430  )
        25           O   tau(  25) = (   0.7778000   1.4040132   1.1881708  )
        26           O   tau(  26) = (   0.2222000   0.7424678   0.0704847  )
        27           O   tau(  27) = (   0.2778000   1.8157083   0.0704847  )
        28           O   tau(  28) = (   0.7222000   0.3307727   1.1881708  )

     number of k points=     4  Gaussian smearing, width (Ry)=  0.0100
                       cart. coord. in units 2pi/alat
        k(    1) = (   0.0000000   0.0000000   0.0000000), wk =   0.2500000
        k(    2) = (   0.0000000   0.0000000  -0.3972493), wk =   0.2500000
        k(    3) = (  -0.5000000   0.0000000   0.0000000), wk =   0.2500000
        k(    4) = (  -0.5000000   0.0000000  -0.3972493), wk =   0.2500000

     Dense  grid:   347803 G-vectors     FFT dimensions: (  64, 144,  80)

     Smooth grid:   123029 G-vectors     FFT dimensions: (  48,  96,  60)

     Estimated max dynamical RAM per process >     151.69 MB

     Estimated total dynamical RAM >       2.07 GB

     Check: negative core charge=   -0.000002
     Generating pointlists ...
     new r_m :   0.1793 (alat units)  1.6107 (a.u.) for type    1
     new r_m :   0.1283 (alat units)  1.1527 (a.u.) for type    2
     new r_m :   0.1283 (alat units)  1.1527 (a.u.) for type    3

     Initial potential from superposition of free atoms

     starting charge  239.99424, renormalised to  240.00000
     Starting wfcs are  160 randomized atomic wfcs
     Checking if some PAW data can be deallocated... 

     total cpu time spent up to now is       21.1 secs

     Self-consistent Calculation

     iteration #  1     ecut=    60.00 Ry     beta= 0.30
     Davidson diagonalization with overlap
     ethr =  1.00E-02,  avg # of iterations =  4.1

     total cpu time spent up to now is       72.7 secs

     total energy              =   -3483.75245899 Ry
     estimated scf accuracy    <      12.70425687 Ry

     total magnetization       =    33.49 Bohr mag/cell
     absolute magnetization    =    33.69 Bohr mag/cell

     iteration #  2     ecut=    60.00 Ry     beta= 0.30
     Davidson diagonalization with overlap
     ethr =  5.29E-03,  avg # of iterations =  2.6

     negative rho (up, down):  0.000E+00 2.719E-04

     total cpu time spent up to now is      119.8 secs

     total energy              =   -3484.84352481 Ry
     estimated scf accuracy    <       9.77670638 Ry

     total magnetization       =    32.00 Bohr mag/cell
     absolute magnetization    =    32.23 Bohr mag/cell

     iteration #  3     ecut=    60.00 Ry     beta= 0.30
     Davidson diagonalization with overlap
     ethr =  4.07E-03,  avg # of iterations =  2.0

     negative rho (up, down):  0.000E+00 9.786E-04

     total cpu time spent up to now is      166.1 secs

     total energy              =   -3486.88436212 Ry
     estimated scf accuracy    <       9.39122852 Ry

     total magnetization       =    32.00 Bohr mag/cell
     absolute magnetization    =    32.09 Bohr mag/cell

     iteration #  4     ecut=    60.00 Ry     beta= 0.30
     Davidson diagonalization with overlap
     ethr =  3.91E-03,  avg # of iterations =  2.0

     negative rho (up, down):  0.000E+00 1.793E-03

     total cpu time spent up to now is      208.2 secs

     total energy              =   -3487.68162730 Ry
     estimated scf accuracy    <       0.90084954 Ry

     total magnetization       =    32.01 Bohr mag/cell
     absolute magnetization    =    32.16 Bohr mag/cell

     iteration #  5     ecut=    60.00 Ry     beta= 0.30
     Davidson diagonalization with overlap
     ethr =  3.75E-04,  avg # of iterations =  9.6

     negative rho (up, down):  0.000E+00 2.913E-03

     total cpu time spent up to now is      271.9 secs

     total energy              =   -3487.95701061 Ry
     estimated scf accuracy    <       0.64353688 Ry

     total magnetization       =    32.00 Bohr mag/cell
     absolute magnetization    =    32.10 Bohr mag/cell

     iteration #  6     ecut=    60.00 Ry     beta= 0.30
     Davidson diagonalization with overlap
     ethr =  2.68E-04,  avg # of iterations =  4.6

     negative rho (up, down):  0.000E+00 3.413E-03

     total cpu time spent up to now is      345.7 secs

     total energy              =   -3488.05032050 Ry
     estimated scf accuracy    <       1.08839050 Ry

     total magnetization       =    32.00 Bohr mag/cell
     absolute magnetization    =    32.11 Bohr mag/cell

     iteration #  7     ecut=    60.00 Ry     beta= 0.30
     Davidson diagonalization with overlap
     ethr =  2.68E-04,  avg # of iterations =  1.1

     negative rho (up, down):  0.000E+00 3.397E-03

     total cpu time spent up to now is      385.3 secs

     total energy              =   -3488.06919445 Ry
     estimated scf accuracy    <       0.93026042 Ry

     total magnetization       =    32.00 Bohr mag/cell
     absolute magnetization    =    32.11 Bohr mag/cell

     iteration #  8     ecut=    60.00 Ry     beta= 0.30
     Davidson diagonalization with overlap
     ethr =  2.68E-04,  avg # of iterations =  1.5

     negative rho (up, down):  0.000E+00 3.374E-03

     total cpu time spent up to now is      425.5 secs

     total energy              =   -3488.10918453 Ry
     estimated scf accuracy    <       0.22753946 Ry

     total magnetization       =    32.00 Bohr mag/cell
     absolute magnetization    =    32.11 Bohr mag/cell

     iteration #  9     ecut=    60.00 Ry     beta= 0.30
     Davidson diagonalization with overlap
     ethr =  9.48E-05,  avg # of iterations =  3.2

     negative rho (up, down):  0.000E+00 3.334E-03

     total cpu time spent up to now is      469.5 secs

     total energy              =   -3488.11913478 Ry
     estimated scf accuracy    <       0.04439831 Ry

     total magnetization       =    32.00 Bohr mag/cell
     absolute magnetization    =    32.11 Bohr mag/cell

     iteration # 10     ecut=    60.00 Ry     beta= 0.30
     Davidson diagonalization with overlap
     c_bands:  1 eigenvalues not converged
     c_bands:  2 eigenvalues not converged
     c_bands:  2 eigenvalues not converged
     ethr =  1.85E-05,  avg # of iterations = 14.1

     negative rho (up, down):  0.000E+00 3.274E-03

     total cpu time spent up to now is      535.4 secs

     total energy              =   -3488.12450993 Ry
     estimated scf accuracy    <       0.18767037 Ry

     total magnetization       =    32.00 Bohr mag/cell
     absolute magnetization    =    32.11 Bohr mag/cell

     iteration # 11     ecut=    60.00 Ry     beta= 0.30
     Davidson diagonalization with overlap
     ethr =  1.85E-05,  avg # of iterations =  1.6

     negative rho (up, down):  0.000E+00 3.260E-03

     total cpu time spent up to now is      573.7 secs

     total energy              =   -3488.13242811 Ry
     estimated scf accuracy    <       0.02317248 Ry

     total magnetization       =    32.00 Bohr mag/cell
     absolute magnetization    =    32.12 Bohr mag/cell

     iteration # 12     ecut=    60.00 Ry     beta= 0.30
     Davidson diagonalization with overlap
     ethr =  9.66E-06,  avg # of iterations =  1.5

     negative rho (up, down):  0.000E+00 3.239E-03

     total cpu time spent up to now is      612.7 secs

     total energy              =   -3488.13301131 Ry
     estimated scf accuracy    <       0.00337592 Ry

     total magnetization       =    32.00 Bohr mag/cell
     absolute magnetization    =    32.12 Bohr mag/cell

     iteration # 13     ecut=    60.00 Ry     beta= 0.30
     Davidson diagonalization with overlap
     c_bands:  2 eigenvalues not converged
     ethr =  1.41E-06,  avg # of iterations =  7.9

     negative rho (up, down):  0.000E+00 3.222E-03

     total cpu time spent up to now is      659.5 secs

     total energy              =   -3488.13308080 Ry
     estimated scf accuracy    <       0.00238110 Ry

     total magnetization       =    32.00 Bohr mag/cell
     absolute magnetization    =    32.12 Bohr mag/cell

     iteration # 14     ecut=    60.00 Ry     beta= 0.30
     Davidson diagonalization with overlap
     ethr =  9.92E-07,  avg # of iterations =  4.9

     negative rho (up, down):  0.000E+00 3.224E-03

     total cpu time spent up to now is      720.3 secs

     total energy              =   -3488.13415556 Ry
     estimated scf accuracy    <       0.00253697 Ry

     total magnetization       =    32.00 Bohr mag/cell
     absolute magnetization    =    32.12 Bohr mag/cell

     iteration # 15     ecut=    60.00 Ry     beta= 0.30
     Davidson diagonalization with overlap
     ethr =  9.92E-07,  avg # of iterations =  1.4

     negative rho (up, down):  0.000E+00 3.211E-03

     total cpu time spent up to now is      757.2 secs

     total energy              =   -3488.13383884 Ry
     estimated scf accuracy    <       0.00195453 Ry

     total magnetization       =    32.00 Bohr mag/cell
     absolute magnetization    =    32.12 Bohr mag/cell

     iteration # 16     ecut=    60.00 Ry     beta= 0.30
     Davidson diagonalization with overlap
     ethr =  8.14E-07,  avg # of iterations =  2.0

     negative rho (up, down):  0.000E+00 3.210E-03

     total cpu time spent up to now is      799.0 secs

     total energy              =   -3488.13403559 Ry
     estimated scf accuracy    <       0.00047868 Ry

     total magnetization       =    32.00 Bohr mag/cell
     absolute magnetization    =    32.12 Bohr mag/cell

     iteration # 17     ecut=    60.00 Ry     beta= 0.30
     Davidson diagonalization with overlap
     ethr =  1.99E-07,  avg # of iterations =  4.5

     negative rho (up, down):  0.000E+00 3.209E-03

     total cpu time spent up to now is      860.7 secs

     total energy              =   -3488.13429545 Ry
     estimated scf accuracy    <       0.00008750 Ry

     total magnetization       =    32.00 Bohr mag/cell
     absolute magnetization    =    32.12 Bohr mag/cell

     iteration # 18     ecut=    60.00 Ry     beta= 0.30
     Davidson diagonalization with overlap
     ethr =  3.65E-08,  avg # of iterations =  5.1

     negative rho (up, down):  0.000E+00 3.215E-03

     total cpu time spent up to now is      924.9 secs

     total energy              =   -3488.13431100 Ry
     estimated scf accuracy    <       0.00011444 Ry

     total magnetization       =    32.00 Bohr mag/cell
     absolute magnetization    =    32.12 Bohr mag/cell

     iteration # 19     ecut=    60.00 Ry     beta= 0.30
     Davidson diagonalization with overlap
     ethr =  3.65E-08,  avg # of iterations =  5.0

     negative rho (up, down):  0.000E+00 3.216E-03

     total cpu time spent up to now is      992.8 secs

     total energy              =   -3488.13437142 Ry
     estimated scf accuracy    <       0.00003182 Ry

     total magnetization       =    32.00 Bohr mag/cell
     absolute magnetization    =    32.12 Bohr mag/cell

     iteration # 20     ecut=    60.00 Ry     beta= 0.30
     Davidson diagonalization with overlap
     ethr =  1.33E-08,  avg # of iterations =  2.8

     negative rho (up, down):  0.000E+00 3.217E-03

     total cpu time spent up to now is     1039.4 secs

     total energy              =   -3488.13438459 Ry
     estimated scf accuracy    <       0.00001302 Ry

     total magnetization       =    32.00 Bohr mag/cell
     absolute magnetization    =    32.13 Bohr mag/cell

     iteration # 21     ecut=    60.00 Ry     beta= 0.30
     Davidson diagonalization with overlap
     ethr =  5.42E-09,  avg # of iterations =  6.2

     negative rho (up, down):  0.000E+00 3.217E-03

     total cpu time spent up to now is     1111.0 secs

     total energy              =   -3488.13439300 Ry
     estimated scf accuracy    <       0.00001696 Ry

     total magnetization       =    32.00 Bohr mag/cell
     absolute magnetization    =    32.12 Bohr mag/cell

     iteration # 22     ecut=    60.00 Ry     beta= 0.30
     Davidson diagonalization with overlap
     ethr =  5.42E-09,  avg # of iterations =  4.4

     negative rho (up, down):  0.000E+00 3.215E-03

     total cpu time spent up to now is     1171.3 secs

     total energy              =   -3488.13440271 Ry
     estimated scf accuracy    <       0.00000478 Ry

     total magnetization       =    32.00 Bohr mag/cell
     absolute magnetization    =    32.13 Bohr mag/cell

     iteration # 23     ecut=    60.00 Ry     beta= 0.30
     Davidson diagonalization with overlap
     ethr =  1.99E-09,  avg # of iterations =  3.2

     negative rho (up, down):  0.000E+00 3.212E-03

     total cpu time spent up to now is     1223.0 secs

     total energy              =   -3488.13440535 Ry
     estimated scf accuracy    <       0.00000318 Ry

     total magnetization       =    32.00 Bohr mag/cell
     absolute magnetization    =    32.12 Bohr mag/cell

     iteration # 24     ecut=    60.00 Ry     beta= 0.30
     Davidson diagonalization with overlap
     ethr =  1.33E-09,  avg # of iterations =  5.8

     negative rho (up, down):  0.000E+00 3.213E-03

     total cpu time spent up to now is     1301.3 secs

     total energy              =   -3488.13440713 Ry
     estimated scf accuracy    <       0.00000678 Ry

     total magnetization       =    32.00 Bohr mag/cell
     absolute magnetization    =    32.12 Bohr mag/cell

     iteration # 25     ecut=    60.00 Ry     beta= 0.30
     Davidson diagonalization with overlap
     ethr =  1.33E-09,  avg # of iterations =  5.0

     negative rho (up, down):  0.000E+00 3.213E-03

     total cpu time spent up to now is     1377.6 secs

     total energy              =   -3488.13440991 Ry
     estimated scf accuracy    <       0.00000207 Ry

     total magnetization       =    32.00 Bohr mag/cell
     absolute magnetization    =    32.12 Bohr mag/cell

     iteration # 26     ecut=    60.00 Ry     beta= 0.30
     Davidson diagonalization with overlap
     ethr =  8.61E-10,  avg # of iterations =  2.0

     negative rho (up, down):  0.000E+00 3.213E-03

     total cpu time spent up to now is     1424.2 secs

     total energy              =   -3488.13441104 Ry
     estimated scf accuracy    <       0.00000039 Ry

     total magnetization       =    32.00 Bohr mag/cell
     absolute magnetization    =    32.12 Bohr mag/cell

     iteration # 27     ecut=    60.00 Ry     beta= 0.30
     Davidson diagonalization with overlap
     ethr =  1.61E-10,  avg # of iterations =  4.9

     negative rho (up, down):  0.000E+00 3.213E-03

     total cpu time spent up to now is     1491.3 secs

     total energy              =   -3488.13441153 Ry
     estimated scf accuracy    <       0.00000016 Ry

     total magnetization       =    32.00 Bohr mag/cell
     absolute magnetization    =    32.12 Bohr mag/cell

     iteration # 28     ecut=    60.00 Ry     beta= 0.30
     Davidson diagonalization with overlap
     ethr =  6.87E-11,  avg # of iterations =  1.9

     negative rho (up, down):  0.000E+00 3.214E-03

     Magnetic moment per site:
     atom:    1    charge:   13.3724    magn:    3.4008    constr:    0.0000
     atom:    2    charge:   13.3724    magn:    3.4008    constr:    0.0000
     atom:    3    charge:   13.3724    magn:    3.4008    constr:    0.0000
     atom:    4    charge:   13.3724    magn:    3.4008    constr:    0.0000
     atom:    5    charge:   13.3524    magn:    3.3361    constr:    0.0000
     atom:    6    charge:   13.3524    magn:    3.3361    constr:    0.0000
     atom:    7    charge:   13.3524    magn:    3.3361    constr:    0.0000
     atom:    8    charge:   13.3524    magn:    3.3361    constr:    0.0000
     atom:    9    charge:    0.4764    magn:    0.0054    constr:    0.0000
     atom:   10    charge:    0.4764    magn:    0.0054    constr:    0.0000
     atom:   11    charge:    0.4764    magn:    0.0054    constr:    0.0000
     atom:   12    charge:    0.4764    magn:    0.0054    constr:    0.0000
     atom:   13    charge:    4.0854    magn:    0.1108    constr:    0.0000
     atom:   14    charge:    4.0854    magn:    0.1108    constr:    0.0000
     atom:   15    charge:    4.0854    magn:    0.1108    constr:    0.0000
     atom:   16    charge:    4.0854    magn:    0.1108    constr:    0.0000
     atom:   17    charge:    4.0506    magn:    0.1451    constr:    0.0000
     atom:   18    charge:    4.0506    magn:    0.1451    constr:    0.0000
     atom:   19    charge:    4.0506    magn:    0.1451    constr:    0.0000
     atom:   20    charge:    4.0506    magn:    0.1451    constr:    0.0000
     atom:   21    charge:    4.1253    magn:    0.1151    constr:    0.0000
     atom:   22    charge:    4.1253    magn:    0.1151    constr:    0.0000
     atom:   23    charge:    4.1253    magn:    0.1151    constr:    0.0000
     atom:   24    charge:    4.1253    magn:    0.1151    constr:    0.0000
     atom:   25    charge:    4.1253    magn:    0.1151    constr:    0.0000
     atom:   26    charge:    4.1253    magn:    0.1151    constr:    0.0000
     atom:   27    charge:    4.1253    magn:    0.1151    constr:    0.0000
     atom:   28    charge:    4.1253    magn:    0.1151    constr:    0.0000

     total cpu time spent up to now is     1530.8 secs

     End of self-consistent calculation

 ------ SPIN UP ------------


          k = 0.0000 0.0000 0.0000 ( 15339 PWs)   bands (ev):

   -78.3531 -78.3531 -78.3508 -78.3507 -78.2345 -78.2344 -78.2344 -78.2344
   -44.7208 -44.7206 -44.7190 -44.7189 -44.6907 -44.6906 -44.6787 -44.6787
   -44.4759 -44.4758 -44.4757 -44.4756 -44.3820 -44.3817 -44.3773 -44.3772
   -44.1864 -44.1864 -44.1588 -44.1588 -43.6778 -43.6778 -43.6767 -43.6767
   -11.4832 -11.2983 -11.0881 -10.9612  -9.4514  -9.4273  -9.4189  -9.4007
    -9.3161  -9.2157  -9.2012  -9.1034  -8.6380  -8.5598  -8.5276  -8.5236
     1.3549   1.5600   2.1687   2.1698   2.2979   2.3320   2.9039   2.9576
     3.0913   3.1329   3.3362   3.4839   3.5130   4.1712   4.2371   4.3495
     4.4360   4.5012   4.5324   4.7135   4.7418   4.8325   4.8372   4.9022
     4.9668   4.9780   4.9925   5.0000   5.3116   5.3505   5.4622   5.5283
     5.5548   5.6675   5.7526   5.8177   5.9339   5.9401   6.0473   6.0932
     6.0993   6.2774   6.5552   6.7616   6.8025   7.0700   7.1208   7.2722
     7.7564   7.8954   7.9277   8.0289   8.1034   8.1101   8.1794   8.2648
     8.2740   8.2916   8.2933   8.3218   8.4283   8.4850   8.5269   8.5652
     8.6564   8.7634   8.8331   8.8692   9.0270   9.0669   9.1147   9.2515
     9.2591   9.2918   9.3283   9.4750   9.6713   9.7322   9.7546   9.9283
     9.9946  10.0665  10.0743  10.2305  10.4040  10.6606  10.6740  10.7110
    12.7347  14.8645  14.9285  15.5387  16.4681  17.2382  17.4714  17.5150

          k = 0.0000 0.0000-0.3972 ( 15392 PWs)   bands (ev):

   -78.3519 -78.3519 -78.3519 -78.3519 -78.2345 -78.2345 -78.2345 -78.2345
   -44.7200 -44.7200 -44.7199 -44.7199 -44.6846 -44.6846 -44.6846 -44.6846
   -44.4757 -44.4757 -44.4757 -44.4757 -44.3796 -44.3796 -44.3795 -44.3795
   -44.1729 -44.1729 -44.1728 -44.1728 -43.6773 -43.6773 -43.6773 -43.6773
   -11.2320 -11.2320 -11.1736 -11.1736  -9.4379  -9.4379  -9.4366  -9.4366
    -9.2559  -9.2559  -9.2048  -9.2048  -8.5707  -8.5707  -8.5186  -8.5186
     1.8068   1.8068   1.8697   1.8697   2.7085   2.7085   2.8794   2.8794
     3.1588   3.1588   3.7049   3.7049   3.8235   3.8235   4.1929   4.1929
     4.2366   4.2366   4.5499   4.5499   4.7777   4.7777   4.8289   4.8289
     4.9659   4.9659   5.0632   5.0632   5.2514   5.2514   5.2728   5.2728
     5.5488   5.5488   5.7710   5.7710   5.8624   5.8624   6.0669   6.0669
     6.4047   6.4047   6.4652   6.4652   6.7326   6.7326   6.7862   6.7862
     8.0263   8.0263   8.0471   8.0471   8.1336   8.1336   8.1567   8.1567
     8.3245   8.3245   8.4229   8.4229   8.5157   8.5157   8.6002   8.6002
     8.8111   8.8111   8.8350   8.8350   9.0669   9.0669   9.1356   9.1356
     9.3063   9.3063   9.4037   9.4037   9.7118   9.7118   9.8427   9.8427
     9.9400   9.9400   9.9824   9.9824  10.3882  10.3882  10.5602  10.5602
    14.3801  14.3801  15.4607  15.4607  16.4954  16.4954  17.9930  17.9931

          k =-0.5000 0.0000 0.0000 ( 15374 PWs)   bands (ev):

   -78.3531 -78.3531 -78.3507 -78.3507 -78.2345 -78.2345 -78.2345 -78.2345
   -44.7199 -44.7199 -44.7198 -44.7198 -44.6907 -44.6907 -44.6787 -44.6787
   -44.4758 -44.4758 -44.4756 -44.4756 -44.3819 -44.3819 -44.3772 -44.3772
   -44.1864 -44.1864 -44.1588 -44.1588 -43.6774 -43.6774 -43.6773 -43.6773
   -11.1126 -11.1126 -10.9659 -10.9659  -9.7709  -9.7709  -9.5619  -9.5619
    -9.2222  -9.2222  -9.1846  -9.1846  -8.6898  -8.6898  -8.4552  -8.4552
     2.0190   2.0190   2.2098   2.2098   3.0974   3.0974   3.1756   3.1756
     3.2910   3.2910   3.4553   3.4553   3.5400   3.5400   3.6076   3.6076
     4.0660   4.0660   4.1284   4.1284   4.2705   4.2705   4.5306   4.5306
     5.0957   5.0957   5.2415   5.2415   5.3088   5.3088   5.5066   5.5066
     5.6665   5.6665   5.8791   5.8791   6.0746   6.0746   6.1179   6.1179
     6.3261   6.3261   6.7701   6.7701   6.8009   6.8009   7.5270   7.5270
     7.9562   7.9562   7.9786   7.9786   8.0870   8.0870   8.1731   8.1731
     8.2787   8.2787   8.3018   8.3018   8.4767   8.4767   8.5537   8.5537
     8.5593   8.5593   8.8815   8.8815   9.0212   9.0212   9.1875   9.1875
     9.4889   9.4889   9.5679   9.5679   9.5899   9.5899   9.6861   9.6861
     9.8907   9.8907  10.1542  10.1542  10.5142  10.5142  10.5928  10.5928
    14.9318  14.9318  15.8718  15.8718  16.4883  16.4883  16.9604  16.9605

          k =-0.5000 0.0000-0.3972 ( 15436 PWs)   bands (ev):

   -78.3520 -78.3520 -78.3520 -78.3520 -78.2345 -78.2345 -78.2345 -78.2345
   -44.7200 -44.7200 -44.7199 -44.7199 -44.6847 -44.6847 -44.6846 -44.6846
   -44.4758 -44.4758 -44.4757 -44.4757 -44.3796 -44.3796 -44.3795 -44.3795
   -44.1729 -44.1729 -44.1729 -44.1729 -43.6774 -43.6774 -43.6773 -43.6773
   -11.0378 -11.0378 -11.0050 -11.0050  -9.7099  -9.7099  -9.6708  -9.6708
    -9.2326  -9.2326  -9.1912  -9.1912  -8.6058  -8.6058  -8.5384  -8.5384
     2.2318   2.2318   2.2776   2.2776   3.0899   3.0899   3.2737   3.2737
     3.4842   3.4842   3.5500   3.5500   3.6529   3.6529   3.8968   3.8968
     3.9108   3.9108   4.0190   4.0190   4.1501   4.1501   4.1660   4.1660
     4.8979   4.8979   4.8997   4.8997   5.5541   5.5541   5.7058   5.7058
     5.7451   5.7451   6.0055   6.0055   6.0912   6.0912   6.2972   6.2972
     6.3081   6.3081   6.4244   6.4244   6.6917   6.6917   6.8880   6.8880
     7.9755   7.9755   8.0550   8.0550   8.1642   8.1642   8.1802   8.1802
     8.2035   8.2035   8.3298   8.3298   8.5987   8.5987   8.6098   8.6098
     8.6953   8.6953   8.7236   8.7236   9.0234   9.0234   9.1027   9.1027
     9.3357   9.3357   9.3913   9.3913   9.4720   9.4720   9.8013   9.8013
     9.9930   9.9930  10.0726  10.0726  10.4380  10.4380  10.6192  10.6192
    15.7038  15.7038  16.0942  16.0942  16.6231  16.6231  16.8467  16.8467

 ------ SPIN DOWN ----------


          k = 0.0000 0.0000 0.0000 ( 15339 PWs)   bands (ev):

   -74.1796 -74.1795 -74.1769 -74.1768 -74.1247 -74.1246 -74.1245 -74.1244
   -40.4252 -40.4251 -40.4237 -40.4228 -40.4208 -40.4203 -40.4056 -40.4054
   -40.3497 -40.3465 -40.3437 -40.3432 -40.3386 -40.3380 -40.3378 -40.3354
   -40.2809 -40.2808 -40.2476 -40.2476 -40.0626 -40.0625 -40.0611 -40.0611
   -11.2665 -11.0829 -10.8762 -10.7497  -9.2296  -9.1955  -9.1953  -9.1672
    -9.0809  -8.9760  -8.9710  -8.8688  -8.3459  -8.2581  -8.2326  -8.2246
     1.6861   1.8689   2.4013   2.5293   2.5380   2.6816   3.2414   3.4164
     3.4261   3.5439   3.7649   3.7749   3.9540   4.5036   4.6098   4.6134
     4.9211   5.0906   5.0988   5.2532   5.3237   5.3591   5.3900   5.4306
     5.4772   5.5501   5.5920   5.6986   5.8051   5.9424   6.1297   6.1813
     6.2650   6.3696   6.4172   6.5028   6.5863   6.6697   6.6728   6.7981
     6.8095   7.0816   7.1446   7.1766   7.5102   7.5788   7.6823   7.7932
    10.8266  10.9729  11.1181  11.1440  11.1747  11.2917  11.2933  11.4140
    11.4877  11.6261  11.6598  11.6826  11.7043  11.7609  11.7638  11.7855
    11.8312  11.9915  11.9929  12.0569  12.0942  12.1313  12.3081  12.3088
    12.9031  12.9132  12.9293  13.0041  13.1243  13.1706  13.2896  13.3153
    13.3191  13.3677  13.3996  13.4096  13.4644  13.7075  13.7432  13.7757
    13.8289  15.4129  15.4758  16.0497  17.2365  17.6527  17.9618  18.0245

          k = 0.0000 0.0000-0.3972 ( 15392 PWs)   bands (ev):

   -74.1783 -74.1783 -74.1783 -74.1783 -74.1246 -74.1246 -74.1246 -74.1246
   -40.4227 -40.4227 -40.4223 -40.4223 -40.4146 -40.4146 -40.4143 -40.4143
   -40.3467 -40.3467 -40.3447 -40.3447 -40.3384 -40.3384 -40.3364 -40.3364
   -40.2650 -40.2650 -40.2649 -40.2649 -40.0619 -40.0619 -40.0619 -40.0619
   -11.0172 -11.0172 -10.9601 -10.9601  -9.2108  -9.2108  -9.2092  -9.2092
    -9.0186  -9.0186  -8.9700  -8.9700  -8.2758  -8.2758  -8.2217  -8.2217
     2.1046   2.1046   2.1555   2.1555   3.0598   3.0598   3.2341   3.2341
     3.5414   3.5414   4.1079   4.1079   4.1868   4.1868   4.5850   4.5850
     4.8797   4.8797   5.1188   5.1188   5.2487   5.2487   5.3056   5.3056
     5.3556   5.3556   5.5849   5.5849   5.8612   5.8612   5.9398   5.9398
     6.3272   6.3272   6.4721   6.4721   6.5419   6.5419   6.6796   6.6796
     6.9988   6.9988   7.0054   7.0054   7.4689   7.4689   7.5899   7.5899
    11.1969  11.1969  11.2301  11.2301  11.3620  11.3620  11.4268  11.4268
    11.5336  11.5336  11.6584  11.6584  11.7614  11.7614  11.7915  11.7915
    11.8997  11.8997  11.9181  11.9181  12.0336  12.0336  12.1638  12.1638
    12.8091  12.8091  12.8875  12.8875  13.2387  13.2387  13.2971  13.2971
    13.3062  13.3062  13.3620  13.3620  13.6479  13.6479  13.6974  13.6974
    15.0049  15.0049  16.0311  16.0311  17.0698  17.0698  18.3521  18.3521

          k =-0.5000 0.0000 0.0000 ( 15374 PWs)   bands (ev):

   -74.1797 -74.1797 -74.1768 -74.1768 -74.1247 -74.1247 -74.1245 -74.1245
   -40.4253 -40.4253 -40.4224 -40.4224 -40.4215 -40.4215 -40.4055 -40.4055
   -40.3484 -40.3484 -40.3433 -40.3433 -40.3379 -40.3379 -40.3368 -40.3368
   -40.2810 -40.2810 -40.2476 -40.2476 -40.0620 -40.0620 -40.0619 -40.0619
   -10.9005 -10.9005 -10.7495 -10.7495  -9.5404  -9.5404  -9.3378  -9.3378
    -8.9841  -8.9841  -8.9529  -8.9529  -8.3887  -8.3887  -8.1655  -8.1655
     2.3663   2.3663   2.4734   2.4734   3.4441   3.4441   3.5205   3.5205
     3.6571   3.6571   3.8918   3.8918   3.9898   3.9898   3.9972   3.9972
     4.4356   4.4356   4.6702   4.6702   4.7995   4.7995   4.8674   4.8674
     5.5267   5.5267   5.7927   5.7927   5.9132   5.9132   6.2057   6.2057
     6.4868   6.4868   6.6073   6.6073   6.8722   6.8722   6.8992   6.8992
     6.9920   6.9920   7.4192   7.4192   7.4663   7.4663   8.0183   8.0183
    10.8808  10.8808  11.0987  11.0987  11.2353  11.2353  11.4072  11.4072
    11.4840  11.4840  11.6346  11.6346  11.8248  11.8248  11.8624  11.8624
    11.9564  11.9564  12.0400  12.0400  12.0651  12.0651  12.3144  12.3144
    12.9256  12.9256  12.9605  12.9605  13.0066  13.0066  13.0480  13.0480
    13.3029  13.3029  13.3768  13.3768  13.7428  13.7428  13.7595  13.7595
    15.4079  15.4079  16.2856  16.2856  17.1332  17.1332  17.7239  17.7240

          k =-0.5000 0.0000-0.3972 ( 15436 PWs)   bands (ev):

   -74.1784 -74.1784 -74.1784 -74.1784 -74.1247 -74.1247 -74.1246 -74.1246
   -40.4227 -40.4227 -40.4223 -40.4223 -40.4146 -40.4146 -40.4144 -40.4144
   -40.3470 -40.3470 -40.3445 -40.3445 -40.3386 -40.3386 -40.3363 -40.3363
   -40.2651 -40.2651 -40.2649 -40.2649 -40.0620 -40.0620 -40.0619 -40.0619
   -10.8236 -10.8236 -10.7910 -10.7910  -9.4817  -9.4817  -9.4433  -9.4433
    -8.9973  -8.9973  -8.9559  -8.9559  -8.3123  -8.3123  -8.2426  -8.2426
     2.5297   2.5297   2.6153   2.6153   3.4744   3.4744   3.7026   3.7026
     3.8766   3.8766   4.0012   4.0012   4.0463   4.0463   4.2595   4.2595
     4.3360   4.3360   4.3852   4.3852   4.6123   4.6123   4.6523   4.6523
     5.3147   5.3147   5.3404   5.3404   6.1560   6.1560   6.1561   6.1561
     6.5112   6.5112   6.7707   6.7707   6.8441   6.8441   7.0661   7.0661
     7.0817   7.0817   7.2576   7.2576   7.2783   7.2783   7.5534   7.5534
    11.1214  11.1214  11.2414  11.2414  11.2878  11.2878  11.4041  11.4041
    11.6481  11.6481  11.6848  11.6848  11.7122  11.7122  11.7708  11.7708
    11.9249  11.9249  11.9639  11.9639  12.0914  12.0914  12.1056  12.1056
    12.7480  12.7480  12.7980  12.7980  13.0739  13.0739  13.1219  13.1219
    13.2750  13.2750  13.2788  13.2788  13.5849  13.5849  13.7875  13.7875
    16.1825  16.1825  16.4596  16.4596  17.4779  17.4780  17.6638  17.6638

     the Fermi energy is    11.4735 ev

!    total energy              =   -3488.13441159 Ry

     total all-electron energy =    -25093.440379 Ry
     estimated scf accuracy    <       0.00000005 Ry
     smearing contrib. (-TS)   =      -0.01021282 Ry
     internal energy E=F+TS    =   -3488.12419878 Ry

     The total energy is F=E-TS. E is the sum of the following terms:
     one-electron contribution =   -1451.62865261 Ry
     hartree contribution      =     860.74640454 Ry
     xc contribution           =    -370.71530557 Ry
     ewald contribution        =   -1568.63049978 Ry
     one-center paw contrib.   =    -957.89614536 Ry

     total magnetization       =    32.00 Bohr mag/cell
     absolute magnetization    =    32.12 Bohr mag/cell

     convergence has been achieved in  28 iterations

     negative rho (up, down):  0.000E+00 3.214E-03

     Forces acting on atoms (cartesian axes, Ry/au):

     atom    1 type  1   force =     0.00000000    0.00000000    0.00000000
     atom    2 type  1   force =     0.00000000   -0.00000000    0.00000000
     atom    3 type  1   force =     0.00000000    0.00000000   -0.00000000
     atom    4 type  1   force =     0.00000000    0.00000000   -0.00000000
     atom    5 type  1   force =     0.01124543    0.02078459    0.00000000
     atom    6 type  1   force =    -0.01124543   -0.02078459   -0.00000000
     atom    7 type  1   force =     0.01124543   -0.02078459   -0.00000000
     atom    8 type  1   force =    -0.01124543    0.02078459    0.00000000
     atom    9 type  2   force =    -0.13312883    0.21722836    0.00000000
     atom   10 type  2   force =     0.13312883   -0.21722836    0.00000000
     atom   11 type  2   force =    -0.13312883   -0.21722836   -0.00000000
     atom   12 type  2   force =     0.13312883    0.21722836   -0.00000000
     atom   13 type  3   force =    -0.11883906    0.02259724    0.00000000
     atom   14 type  3   force =     0.11883906   -0.02259724    0.00000000
     atom   15 type  3   force =    -0.11883906   -0.02259724    0.00000000
     atom   16 type  3   force =     0.11883906    0.02259724    0.00000000
     atom   17 type  3   force =     0.02529163    0.09501101    0.00000000
     atom   18 type  3   force =    -0.02529163   -0.09501101    0.00000000
     atom   19 type  3   force =     0.02529163   -0.09501101    0.00000000
     atom   20 type  3   force =    -0.02529163    0.09501101    0.00000000
     atom   21 type  3   force =     0.10818065   -0.17289339    0.30991111
     atom   22 type  3   force =    -0.10818065    0.17289339   -0.30991111
     atom   23 type  3   force =     0.10818065    0.17289339   -0.30991111
     atom   24 type  3   force =    -0.10818065   -0.17289339    0.30991111
     atom   25 type  3   force =    -0.10818065    0.17289339    0.30991111
     atom   26 type  3   force =     0.10818065   -0.17289339   -0.30991111
     atom   27 type  3   force =    -0.10818065   -0.17289339   -0.30991111
     atom   28 type  3   force =     0.10818065    0.17289339    0.30991111

     Total force =     1.208388     Total SCF correction =     0.000636


     Computing stress (Cartesian axis) and pressure


     negative rho (up, down):  0.000E+00 3.214E-03
          total   stress  (Ry/bohr**3)                   (kbar)     P=      306.24
   0.00200037   0.00000000   0.00000000          294.26        0.00        0.00
   0.00000000   0.00135274   0.00000000            0.00      198.99        0.00
   0.00000000   0.00000000   0.00289229            0.00        0.00      425.47


     BFGS Geometry Optimization
     Energy error            =      0.0E+00
     Gradient error          =      3.1E-01
     Cell gradient error     =      2.9E-03


     number of scf cycles    =   1
     number of bfgs steps    =   0

     enthalpy new            =   -3488.1344115912 Ry

     new trust radius        =       0.5000000000 bohr
     new conv_thr            =       0.0000001000 Ry

     new unit-cell volume =   2207.45020 a.u.^3 (   327.11037 Ang^3 )
     density =      4.13768 g/cm^3

CELL_PARAMETERS (angstrom)
   4.939917679   0.000000000   0.000000000
   0.000000000  10.474378251   0.000000000
   0.000000000   0.000000000   6.321881480

ATOMIC_POSITIONS (angstrom)
Fe            0.0000000000        0.0000000000        0.0000000000
Fe            2.4699588397        5.2371891257        0.0000000000
Fe            0.0000000000        0.0000000000        3.1609407402
Fe            2.4699588397        5.2371891257        3.1609407402
Fe            0.0774467710        2.9081263548        4.7414111103
Fe            4.8624709084        7.5662518967        1.5804703701
Fe            2.5474056106        2.3290627709        1.5804703701
Fe            2.3925120687        8.1453154805        4.7414111103
Si            0.2891085707        4.2923909835        1.5804703701
Si            4.6508091087        6.1819872679        4.7414111103
Si            2.7590674103        0.9447981422        4.7414111103
Si            2.1808502690        9.5295801093        1.5804703701
O             1.1646716281        0.9040994219        4.7414111103
O             3.7752460512        9.5702788295        1.5804703701
O             3.6346304678        4.3330897038        1.5804703701
O             1.3052872116        6.1412885476        4.7414111103
O             1.3984857894        0.5514607786        1.5804703701
O             3.5414318900        9.9229174728        4.7414111103
O             3.8684446290        4.6857283471        4.7414111103
O             1.0714730503        5.7886499043        1.5804703701
O             1.1441139708        3.5497325051        2.9422554330
O             3.7958037085        6.9246457463        3.3796260474
O             3.6140728105        1.6874566206        3.3796260474
O             1.3258448689        8.7869216309        2.9422554330
O             3.7958037085        6.9246457463        6.1031961732
O             1.1441139708        3.5497325051        0.2186853072
O             1.3258448689        8.7869216309        0.2186853072
O             3.6140728105        1.6874566206        6.1031961732



     Writing output data file ./out/oliv.save/
     NEW-OLD atomic charge density approx. for the potential

     Check: negative core charge=   -0.000002

     negative rho (up, down):  0.000E+00 3.381E-03
     extrapolated charge  266.99759, renormalised to  240.00000
     Generating pointlists ...

     total cpu time spent up to now is     1577.2 secs

     Self-consistent Calculation

     iteration #  1     ecut=    60.00 Ry     beta= 0.30
     Davidson diagonalization with overlap
     c_bands:  2 eigenvalues not converged
     c_bands:  3 eigenvalues not converged
     c_bands:  2 eigenvalues not converged
     c_bands:  4 eigenvalues not converged
     c_bands:  3 eigenvalues not converged
     c_bands:  4 eigenvalues not converged
     ethr =  1.00E-06,  avg # of iterations = 52.2

     negative rho (up, down):  0.000E+00 4.881E-03

     total cpu time spent up to now is     2101.6 secs

     total energy              =   -3373.04595185 Ry
     estimated scf accuracy    <     173.02825457 Ry

     total magnetization       =     3.44 Bohr mag/cell
     absolute magnetization    =     3.83 Bohr mag/cell

     iteration #  2     ecut=    60.00 Ry     beta= 0.30
     Davidson diagonalization with overlap
     ethr =  1.00E-02,  avg # of iterations =  9.2

     negative rho (up, down):  0.000E+00 1.695E-03

     total cpu time spent up to now is     2217.2 secs

     total energy              =   -3500.03557150 Ry
     estimated scf accuracy    <     352.05581468 Ry

     total magnetization       =     1.39 Bohr mag/cell
     absolute magnetization    =     2.03 Bohr mag/cell

     iteration #  3     ecut=    60.00 Ry     beta= 0.30
     Davidson diagonalization with overlap
     ethr =  1.00E-02,  avg # of iterations =  3.8

     negative rho (up, down):  0.000E+00 6.209E-04

     total cpu time spent up to now is     2269.3 secs

     total energy              =   -3493.77427383 Ry
     estimated scf accuracy    <     171.37672716 Ry

     total magnetization       =     2.20 Bohr mag/cell
     absolute magnetization    =     2.50 Bohr mag/cell

     iteration #  4     ecut=    60.00 Ry     beta= 0.30
     Davidson diagonalization with overlap
     ethr =  1.00E-02,  avg # of iterations =  2.0

     total cpu time spent up to now is     2313.2 secs

     total energy              =   -3473.48690499 Ry
     estimated scf accuracy    <     107.04767563 Ry

     total magnetization       =     5.87 Bohr mag/cell
     absolute magnetization    =     6.20 Bohr mag/cell

     iteration #  5     ecut=    60.00 Ry     beta= 0.30
     Davidson diagonalization with overlap
     ethr =  1.00E-02,  avg # of iterations =  2.1

     total cpu time spent up to now is     2359.0 secs

     total energy              =   -3487.32534917 Ry
     estimated scf accuracy    <      48.17456577 Ry

     total magnetization       =    16.15 Bohr mag/cell
     absolute magnetization    =    16.43 Bohr mag/cell

     iteration #  6     ecut=    60.00 Ry     beta= 0.30
     Davidson diagonalization with overlap
     ethr =  1.00E-02,  avg # of iterations =  1.5

     total cpu time spent up to now is     2394.8 secs

     total energy              =   -3488.49842995 Ry
     estimated scf accuracy    <      19.05312282 Ry

     total magnetization       =    27.01 Bohr mag/cell
     absolute magnetization    =    27.06 Bohr mag/cell

     iteration #  7     ecut=    60.00 Ry     beta= 0.30
     Davidson diagonalization with overlap
     ethr =  7.94E-03,  avg # of iterations =  1.0

     negative rho (up, down):  0.000E+00 5.898E-04

     total cpu time spent up to now is     2428.1 secs

     total energy              =   -3489.12670059 Ry
     estimated scf accuracy    <       9.45792745 Ry

     total magnetization       =    30.84 Bohr mag/cell
     absolute magnetization    =    30.86 Bohr mag/cell

     iteration #  8     ecut=    60.00 Ry     beta= 0.30
     Davidson diagonalization with overlap
     ethr =  3.94E-03,  avg # of iterations =  1.2

     negative rho (up, down):  0.000E+00 1.350E-03

     total cpu time spent up to now is     2461.6 secs

     total energy              =   -3489.81023101 Ry
     estimated scf accuracy    <      11.82679786 Ry

     total magnetization       =    19.23 Bohr mag/cell
     absolute magnetization    =    19.41 Bohr mag/cell

     iteration #  9     ecut=    60.00 Ry     beta= 0.30
     Davidson diagonalization with overlap
     ethr =  3.94E-03,  avg # of iterations =  1.0

     negative rho (up, down):  0.000E+00 1.227E-03

     total cpu time spent up to now is     2496.6 secs

     total energy              =   -3488.30648703 Ry
     estimated scf accuracy    <      19.54129224 Ry

     total magnetization       =    15.68 Bohr mag/cell
     absolute magnetization    =    16.24 Bohr mag/cell

     iteration # 10     ecut=    60.00 Ry     beta= 0.30
     Davidson diagonalization with overlap
     ethr =  3.94E-03,  avg # of iterations =  1.0

     negative rho (up, down):  0.000E+00 1.494E-03

     total cpu time spent up to now is     2531.7 secs

     total energy              =   -3487.71572361 Ry
     estimated scf accuracy    <       5.50779168 Ry

     total magnetization       =    26.39 Bohr mag/cell
     absolute magnetization    =    26.44 Bohr mag/cell

     iteration # 11     ecut=    60.00 Ry     beta= 0.30
     Davidson diagonalization with overlap
     ethr =  2.29E-03,  avg # of iterations =  2.0

     negative rho (up, down):  0.000E+00 1.674E-03

     total cpu time spent up to now is     2573.9 secs

     total energy              =   -3488.44750135 Ry
     estimated scf accuracy    <       1.34707063 Ry

     total magnetization       =    32.00 Bohr mag/cell
     absolute magnetization    =    32.04 Bohr mag/cell

     iteration # 12     ecut=    60.00 Ry     beta= 0.30
     Davidson diagonalization with overlap
     ethr =  5.61E-04,  avg # of iterations =  7.9

     negative rho (up, down):  0.000E+00 1.464E-03

     total cpu time spent up to now is     2619.1 secs

     total energy              =   -3488.56941967 Ry
     estimated scf accuracy    <       1.48260056 Ry

     total magnetization       =    32.02 Bohr mag/cell
     absolute magnetization    =    32.07 Bohr mag/cell

     iteration # 13     ecut=    60.00 Ry     beta= 0.30
     Davidson diagonalization with overlap
     ethr =  5.61E-04,  avg # of iterations =  2.0

     negative rho (up, down):  0.000E+00 1.708E-03

     total cpu time spent up to now is     2661.7 secs

     total energy              =   -3488.66379947 Ry
     estimated scf accuracy    <       1.09006049 Ry

     total magnetization       =    32.50 Bohr mag/cell
     absolute magnetization    =    32.53 Bohr mag/cell

     iteration # 14     ecut=    60.00 Ry     beta= 0.30
     Davidson diagonalization with overlap
     ethr =  4.54E-04,  avg # of iterations =  1.2

     negative rho (up, down):  0.000E+00 2.422E-03

     total cpu time spent up to now is     2701.6 secs

     total energy              =   -3488.57948657 Ry
     estimated scf accuracy    <       0.89711621 Ry

     total magnetization       =    32.50 Bohr mag/cell
     absolute magnetization    =    32.53 Bohr mag/cell

     iteration # 15     ecut=    60.00 Ry     beta= 0.30
     Davidson diagonalization with overlap
     ethr =  3.74E-04,  avg # of iterations =  3.9

     negative rho (up, down):  0.000E+00 2.543E-03

     total cpu time spent up to now is     2745.0 secs

     total energy              =   -3488.57622509 Ry
     estimated scf accuracy    <       0.40885835 Ry

     total magnetization       =    32.47 Bohr mag/cell
     absolute magnetization    =    32.50 Bohr mag/cell

     iteration # 16     ecut=    60.00 Ry     beta= 0.30
     Davidson diagonalization with overlap
     ethr =  1.70E-04,  avg # of iterations =  2.0

     negative rho (up, down):  0.000E+00 2.679E-03

     total cpu time spent up to now is     2780.8 secs

     total energy              =   -3488.55619855 Ry
     estimated scf accuracy    <       0.26484155 Ry

     total magnetization       =    32.33 Bohr mag/cell
     absolute magnetization    =    32.37 Bohr mag/cell

     iteration # 17     ecut=    60.00 Ry     beta= 0.30
     Davidson diagonalization with overlap
     ethr =  1.10E-04,  avg # of iterations =  4.4

     negative rho (up, down):  0.000E+00 2.721E-03

     total cpu time spent up to now is     2816.1 secs

     total energy              =   -3488.56861008 Ry
     estimated scf accuracy    <       0.13219337 Ry

     total magnetization       =    32.06 Bohr mag/cell
     absolute magnetization    =    32.12 Bohr mag/cell

     iteration # 18     ecut=    60.00 Ry     beta= 0.30
     Davidson diagonalization with overlap
     ethr =  5.51E-05,  avg # of iterations =  8.8

     negative rho (up, down):  0.000E+00 3.343E-03

     total cpu time spent up to now is     2855.3 secs

     total energy              =   -3488.52968190 Ry
     estimated scf accuracy    <       0.15918171 Ry

     total magnetization       =    32.10 Bohr mag/cell
     absolute magnetization    =    32.17 Bohr mag/cell

     iteration # 19     ecut=    60.00 Ry     beta= 0.30
     Davidson diagonalization with overlap
     ethr =  5.51E-05,  avg # of iterations =  2.0

     negative rho (up, down):  0.000E+00 3.383E-03

     total cpu time spent up to now is     2895.6 secs

     total energy              =   -3488.55117440 Ry
     estimated scf accuracy    <       0.00840236 Ry

     total magnetization       =    32.00 Bohr mag/cell
     absolute magnetization    =    32.07 Bohr mag/cell

     iteration # 20     ecut=    60.00 Ry     beta= 0.30
     Davidson diagonalization with overlap
     c_bands:  3 eigenvalues not converged
     c_bands:  1 eigenvalues not converged
     c_bands:  3 eigenvalues not converged
     c_bands:  2 eigenvalues not converged
     c_bands:  1 eigenvalues not converged
     ethr =  3.50E-06,  avg # of iterations = 16.0

     negative rho (up, down):  0.000E+00 3.399E-03

     total cpu time spent up to now is     2988.7 secs

     total energy              =   -3488.55665009 Ry
     estimated scf accuracy    <       0.00448947 Ry

     total magnetization       =    32.00 Bohr mag/cell
     absolute magnetization    =    32.08 Bohr mag/cell

     iteration # 21     ecut=    60.00 Ry     beta= 0.30
     Davidson diagonalization with overlap
     ethr =  1.87E-06,  avg # of iterations =  6.4

     negative rho (up, down):  0.000E+00 3.459E-03

     total cpu time spent up to now is     3033.3 secs

     total energy              =   -3488.55705852 Ry
     estimated scf accuracy    <       0.00175282 Ry

     total magnetization       =    32.00 Bohr mag/cell
     absolute magnetization    =    32.08 Bohr mag/cell

     iteration # 22     ecut=    60.00 Ry     beta= 0.30
     Davidson diagonalization with overlap
     ethr =  7.30E-07,  avg # of iterations =  3.5

     negative rho (up, down):  0.000E+00 3.478E-03

     total cpu time spent up to now is     3088.9 secs

     total energy              =   -3488.55775000 Ry
     estimated scf accuracy    <       0.00099285 Ry

     total magnetization       =    32.00 Bohr mag/cell
     absolute magnetization    =    32.09 Bohr mag/cell

     iteration # 23     ecut=    60.00 Ry     beta= 0.30
     Davidson diagonalization with overlap
     ethr =  4.14E-07,  avg # of iterations =  2.0

     negative rho (up, down):  0.000E+00 3.479E-03

     total cpu time spent up to now is     3126.2 secs

     total energy              =   -3488.55792774 Ry
     estimated scf accuracy    <       0.00046574 Ry

     total magnetization       =    32.00 Bohr mag/cell
     absolute magnetization    =    32.09 Bohr mag/cell

     iteration # 24     ecut=    60.00 Ry     beta= 0.30
     Davidson diagonalization with overlap
     ethr =  1.94E-07,  avg # of iterations =  2.0

     negative rho (up, down):  0.000E+00 3.476E-03

     total cpu time spent up to now is     3170.0 secs

     total energy              =   -3488.55792149 Ry
     estimated scf accuracy    <       0.00027833 Ry

     total magnetization       =    32.00 Bohr mag/cell
     absolute magnetization    =    32.09 Bohr mag/cell

     iteration # 25     ecut=    60.00 Ry     beta= 0.30
     Davidson diagonalization with overlap
     ethr =  1.16E-07,  avg # of iterations =  4.2

     negative rho (up, down):  0.000E+00 3.472E-03

     total cpu time spent up to now is     3243.0 secs

     total energy              =   -3488.55826908 Ry
     estimated scf accuracy    <       0.00018103 Ry

     total magnetization       =    32.00 Bohr mag/cell
     absolute magnetization    =    32.09 Bohr mag/cell

     iteration # 26     ecut=    60.00 Ry     beta= 0.30
     Davidson diagonalization with overlap
     ethr =  7.54E-08,  avg # of iterations =  2.0

     negative rho (up, down):  0.000E+00 3.474E-03

     total cpu time spent up to now is     3281.8 secs

     total energy              =   -3488.55829358 Ry
     estimated scf accuracy    <       0.00009046 Ry

     total magnetization       =    32.00 Bohr mag/cell
     absolute magnetization    =    32.09 Bohr mag/cell

     iteration # 27     ecut=    60.00 Ry     beta= 0.30
     Davidson diagonalization with overlap
     ethr =  3.77E-08,  avg # of iterations =  3.5

     negative rho (up, down):  0.000E+00 3.471E-03

     total cpu time spent up to now is     3330.0 secs

     total energy              =   -3488.55834673 Ry
     estimated scf accuracy    <       0.00003186 Ry

     total magnetization       =    32.00 Bohr mag/cell
     absolute magnetization    =    32.09 Bohr mag/cell

     iteration # 28     ecut=    60.00 Ry     beta= 0.30
     Davidson diagonalization with overlap
     ethr =  1.33E-08,  avg # of iterations =  3.9

     negative rho (up, down):  0.000E+00 3.468E-03

     total cpu time spent up to now is     3377.8 secs

     total energy              =   -3488.55832977 Ry
     estimated scf accuracy    <       0.00007875 Ry

     total magnetization       =    32.00 Bohr mag/cell
     absolute magnetization    =    32.09 Bohr mag/cell

     iteration # 29     ecut=    60.00 Ry     beta= 0.30
     Davidson diagonalization with overlap
     ethr =  1.33E-08,  avg # of iterations =  3.5

     negative rho (up, down):  0.000E+00 3.469E-03

     total cpu time spent up to now is     3431.3 secs

     total energy              =   -3488.55838860 Ry
     estimated scf accuracy    <       0.00001579 Ry

     total magnetization       =    32.00 Bohr mag/cell
     absolute magnetization    =    32.09 Bohr mag/cell

     iteration # 30     ecut=    60.00 Ry     beta= 0.30
     Davidson diagonalization with overlap
     ethr =  6.58E-09,  avg # of iterations =  2.0

     negative rho (up, down):  0.000E+00 3.467E-03

     total cpu time spent up to now is     3459.0 secs

     total energy              =   -3488.55837041 Ry
     estimated scf accuracy    <       0.00001050 Ry

     total magnetization       =    32.00 Bohr mag/cell
     absolute magnetization    =    32.09 Bohr mag/cell

     iteration # 31     ecut=    60.00 Ry     beta= 0.30
     Davidson diagonalization with overlap
     ethr =  4.37E-09,  avg # of iterations =  3.9

     negative rho (up, down):  0.000E+00 3.468E-03

     total cpu time spent up to now is     3498.7 secs

     total energy              =   -3488.55841116 Ry
     estimated scf accuracy    <       0.00000607 Ry

     total magnetization       =    32.00 Bohr mag/cell
     absolute magnetization    =    32.09 Bohr mag/cell

     iteration # 32     ecut=    60.00 Ry     beta= 0.30
     Davidson diagonalization with overlap
     ethr =  2.53E-09,  avg # of iterations =  2.0

     negative rho (up, down):  0.000E+00 3.469E-03

     total cpu time spent up to now is     3531.3 secs

     total energy              =   -3488.55841213 Ry
     estimated scf accuracy    <       0.00000561 Ry

     total magnetization       =    32.00 Bohr mag/cell
     absolute magnetization    =    32.09 Bohr mag/cell

     iteration # 33     ecut=    60.00 Ry     beta= 0.30
     Davidson diagonalization with overlap
     ethr =  2.34E-09,  avg # of iterations =  4.0

     negative rho (up, down):  0.000E+00 3.469E-03

     total cpu time spent up to now is     3582.6 secs

     total energy              =   -3488.55841822 Ry
     estimated scf accuracy    <       0.00000365 Ry

     total magnetization       =    32.00 Bohr mag/cell
     absolute magnetization    =    32.09 Bohr mag/cell

     iteration # 34     ecut=    60.00 Ry     beta= 0.30
     Davidson diagonalization with overlap
     ethr =  1.52E-09,  avg # of iterations =  2.8

     negative rho (up, down):  0.000E+00 3.468E-03

     total cpu time spent up to now is     3633.7 secs

     total energy              =   -3488.55841966 Ry
     estimated scf accuracy    <       0.00000121 Ry

     total magnetization       =    32.00 Bohr mag/cell
     absolute magnetization    =    32.09 Bohr mag/cell

     iteration # 35     ecut=    60.00 Ry     beta= 0.30
     Davidson diagonalization with overlap
     ethr =  5.03E-10,  avg # of iterations =  5.2

     negative rho (up, down):  0.000E+00 3.470E-03

     total cpu time spent up to now is     3726.3 secs

     total energy              =   -3488.55842283 Ry
     estimated scf accuracy    <       0.00000214 Ry

     total magnetization       =    32.00 Bohr mag/cell
     absolute magnetization    =    32.09 Bohr mag/cell

     iteration # 36     ecut=    60.00 Ry     beta= 0.30
     Davidson diagonalization with overlap
     ethr =  5.03E-10,  avg # of iterations =  5.2

     negative rho (up, down):  0.000E+00 3.469E-03

     total cpu time spent up to now is     3791.6 secs

     total energy              =   -3488.55842260 Ry
     estimated scf accuracy    <       0.00000047 Ry

     total magnetization       =    32.00 Bohr mag/cell
     absolute magnetization    =    32.09 Bohr mag/cell

     iteration # 37     ecut=    60.00 Ry     beta= 0.30
     Davidson diagonalization with overlap
     ethr =  1.94E-10,  avg # of iterations =  4.1

     negative rho (up, down):  0.000E+00 3.469E-03

     total cpu time spent up to now is     3849.2 secs

     total energy              =   -3488.55842451 Ry
     estimated scf accuracy    <       0.00000028 Ry

     total magnetization       =    32.00 Bohr mag/cell
     absolute magnetization    =    32.09 Bohr mag/cell

     iteration # 38     ecut=    60.00 Ry     beta= 0.30
     Davidson diagonalization with overlap
     ethr =  1.17E-10,  avg # of iterations =  2.0

     negative rho (up, down):  0.000E+00 3.469E-03

     Magnetic moment per site:
     atom:    1    charge:   13.3448    magn:    3.3648    constr:    0.0000
     atom:    2    charge:   13.3448    magn:    3.3648    constr:    0.0000
     atom:    3    charge:   13.3448    magn:    3.3648    constr:    0.0000
     atom:    4    charge:   13.3448    magn:    3.3648    constr:    0.0000
     atom:    5    charge:   13.3192    magn:    3.3794    constr:    0.0000
     atom:    6    charge:   13.3192    magn:    3.3794    constr:    0.0000
     atom:    7    charge:   13.3192    magn:    3.3794    constr:    0.0000
     atom:    8    charge:   13.3192    magn:    3.3794    constr:    0.0000
     atom:    9    charge:    0.3685    magn:    0.0035    constr:    0.0000
     atom:   10    charge:    0.3685    magn:    0.0035    constr:    0.0000
     atom:   11    charge:    0.3685    magn:    0.0035    constr:    0.0000
     atom:   12    charge:    0.3685    magn:    0.0035    constr:    0.0000
     atom:   13    charge:    4.0356    magn:    0.0891    constr:    0.0000
     atom:   14    charge:    4.0356    magn:    0.0891    constr:    0.0000
     atom:   15    charge:    4.0356    magn:    0.0891    constr:    0.0000
     atom:   16    charge:    4.0356    magn:    0.0891    constr:    0.0000
     atom:   17    charge:    4.0062    magn:    0.1153    constr:    0.0000
     atom:   18    charge:    4.0062    magn:    0.1153    constr:    0.0000
     atom:   19    charge:    4.0062    magn:    0.1153    constr:    0.0000
     atom:   20    charge:    4.0062    magn:    0.1153    constr:    0.0000
     atom:   21    charge:    3.9698    magn:    0.1166    constr:    0.0000
     atom:   22    charge:    3.9698    magn:    0.1166    constr:    0.0000
     atom:   23    charge:    3.9698    magn:    0.1166    constr:    0.0000
     atom:   24    charge:    3.9698    magn:    0.1166    constr:    0.0000
     atom:   25    charge:    3.9698    magn:    0.1166    constr:    0.0000
     atom:   26    charge:    3.9698    magn:    0.1166    constr:    0.0000
     atom:   27    charge:    3.9698    magn:    0.1166    constr:    0.0000
     atom:   28    charge:    3.9698    magn:    0.1166    constr:    0.0000

     total cpu time spent up to now is     3897.8 secs

     End of self-consistent calculation

 ------ SPIN UP ------------


          k = 0.0000 0.0000 0.0000 ( 15339 PWs)   bands (ev):

   -79.9877 -79.9877 -79.9877 -79.9877 -79.9404 -79.9403 -79.9394 -79.9394
   -46.6497 -46.6496 -46.6490 -46.6490 -46.3487 -46.3487 -46.3445 -46.3445
   -46.0188 -46.0187 -46.0186 -46.0186 -45.9329 -45.9328 -45.9316 -45.9316
   -45.7108 -45.7108 -45.6950 -45.6950 -45.4269 -45.4269 -45.4265 -45.4265
   -11.8171 -11.6861 -11.4204 -11.3785 -10.4794 -10.4766 -10.4666 -10.4536
    -9.9651  -9.7340  -9.7318  -9.6864  -9.6585  -9.5975  -9.5494  -9.4632
     0.3085   0.4062   0.8944   1.0048   1.3081   1.3879   1.8293   1.9517
     2.0565   2.2198   2.4813   2.6557   2.7833   3.3216   3.4308   3.4520
     3.4571   3.4934   3.5279   3.5818   3.7061   3.7138   3.7678   3.8561
     3.8669   3.8976   3.9157   3.9708   4.0070   4.1114   4.2316   4.2871
     4.4269   4.4553   4.5430   4.5559   4.6330   4.6761   4.6824   4.8095
     4.9673   5.0401   5.2697   5.2789   5.3733   5.7814   5.8062   5.8413
     6.1273   6.3309   6.3309   6.3507   6.3955   6.4137   6.4623   6.5133
     6.5763   6.5845   6.6645   6.6975   6.7380   6.8002   6.9714   7.0243
     7.0483   7.0587   7.1974   7.2072   7.2832   7.3648   7.4102   7.4830
     7.5486   7.5752   7.5916   7.6197   7.8222   8.0669   8.0717   8.0881
     8.2456   8.2551   8.4605   8.4814   8.6085   8.6376   8.6588   8.9393
    10.2251  12.3691  12.5943  14.1222  14.7953  14.9339  14.9371  14.9929

          k = 0.0000 0.0000-0.3760 ( 15392 PWs)   bands (ev):

   -79.9878 -79.9878 -79.9877 -79.9877 -79.9399 -79.9399 -79.9399 -79.9399
   -46.6493 -46.6493 -46.6493 -46.6493 -46.3466 -46.3466 -46.3466 -46.3466
   -46.0187 -46.0187 -46.0186 -46.0186 -45.9322 -45.9322 -45.9322 -45.9322
   -45.7029 -45.7029 -45.7029 -45.7029 -45.4267 -45.4267 -45.4267 -45.4267
   -11.6067 -11.6067 -11.5470 -11.5470 -10.4802 -10.4802 -10.4716 -10.4716
    -9.8613  -9.8613  -9.7178  -9.7178  -9.5790  -9.5790  -9.5349  -9.5349
     0.6529   0.6529   0.6544   0.6544   1.7624   1.7624   1.7848   1.7848
     2.3791   2.3791   2.6949   2.6949   2.9654   2.9654   3.2283   3.2283
     3.3429   3.3429   3.4362   3.4362   3.7651   3.7651   3.7824   3.7824
     3.8951   3.8951   3.9794   3.9794   3.9959   3.9959   4.1236   4.1236
     4.4591   4.4591   4.5295   4.5295   4.5547   4.5547   4.8615   4.8615
     5.0321   5.0321   5.2277   5.2277   5.2931   5.2931   5.3395   5.3395
     6.3516   6.3516   6.3686   6.3686   6.4529   6.4529   6.4830   6.4830
     6.7335   6.7335   6.7381   6.7381   6.8187   6.8187   6.9482   6.9482
     7.2160   7.2160   7.2250   7.2250   7.4252   7.4252   7.4998   7.4998
     7.6423   7.6423   7.7529   7.7529   7.8663   7.8663   7.9421   7.9421
     8.0916   8.0916   8.1685   8.1685   8.5179   8.5179   8.7287   8.7287
    12.0754  12.0754  13.1429  13.1429  14.0272  14.0272  15.2705  15.2707

          k =-0.4812 0.0000 0.0000 ( 15374 PWs)   bands (ev):

   -79.9878 -79.9878 -79.9877 -79.9877 -79.9404 -79.9404 -79.9394 -79.9394
   -46.6493 -46.6493 -46.6493 -46.6493 -46.3487 -46.3487 -46.3445 -46.3445
   -46.0187 -46.0187 -46.0186 -46.0186 -45.9328 -45.9328 -45.9316 -45.9316
   -45.7108 -45.7108 -45.6950 -45.6950 -45.4267 -45.4267 -45.4266 -45.4266
   -11.4569 -11.4569 -11.2799 -11.2799 -10.8183 -10.8183 -10.6208 -10.6208
    -9.8791  -9.8791  -9.6873  -9.6873  -9.5869  -9.5869  -9.5528  -9.5528
     0.5617   0.5617   0.7564   0.7564   2.1674   2.1674   2.1851   2.1851
     2.3959   2.3959   2.4788   2.4788   2.6374   2.6374   2.9366   2.9366
     3.1331   3.1331   3.1716   3.1716   3.2820   3.2820   3.5788   3.5788
     3.9736   3.9736   4.1602   4.1602   4.2710   4.2710   4.3647   4.3647
     4.3982   4.3982   4.6337   4.6337   4.9027   4.9027   5.0535   5.0535
     5.1189   5.1189   5.2280   5.2280   5.2716   5.2716   5.9675   5.9675
     6.2641   6.2641   6.3539   6.3539   6.4672   6.4672   6.4852   6.4852
     6.5643   6.5643   6.5974   6.5974   6.7529   6.7529   6.9629   6.9629
     6.9700   6.9700   7.2128   7.2128   7.3498   7.3498   7.5007   7.5007
     7.7777   7.7777   7.8923   7.8923   7.9419   7.9419   8.0937   8.0937
     8.1751   8.1751   8.2093   8.2093   8.4479   8.4479   8.7026   8.7026
    12.6885  12.6885  13.7518  13.7518  13.9976  13.9976  14.2944  14.2948

          k =-0.4812 0.0000-0.3760 ( 15436 PWs)   bands (ev):

   -79.9878 -79.9878 -79.9878 -79.9878 -79.9399 -79.9399 -79.9399 -79.9399
   -46.6493 -46.6493 -46.6493 -46.6493 -46.3466 -46.3466 -46.3466 -46.3466
   -46.0187 -46.0187 -46.0186 -46.0186 -45.9322 -45.9322 -45.9322 -45.9322
   -45.7029 -45.7029 -45.7029 -45.7029 -45.4267 -45.4267 -45.4266 -45.4266
   -11.3633 -11.3633 -11.3550 -11.3550 -10.7615 -10.7615 -10.6939 -10.6939
    -9.8345  -9.8345  -9.7339  -9.7339  -9.5909  -9.5909  -9.5678  -9.5678
     0.7014   0.7014   0.7331   0.7331   2.1952   2.1952   2.3764   2.3764
     2.4866   2.4866   2.5536   2.5536   2.6785   2.6785   2.9139   2.9139
     3.1180   3.1180   3.1639   3.1639   3.2773   3.2773   3.4737   3.4737
     3.8287   3.8287   3.9987   3.9987   4.3882   4.3882   4.4697   4.4697
     4.5691   4.5691   4.6418   4.6418   4.8010   4.8010   4.8930   4.8930
     5.0424   5.0424   5.1113   5.1113   5.3904   5.3904   5.5023   5.5023
     6.2807   6.2807   6.3894   6.3894   6.5028   6.5028   6.5223   6.5223
     6.5437   6.5437   6.6692   6.6692   6.8990   6.8990   6.9451   6.9451
     7.0226   7.0226   7.1121   7.1121   7.3030   7.3030   7.3466   7.3466
     7.5828   7.5828   7.7057   7.7057   7.7240   7.7240   7.9257   7.9257
     8.2674   8.2674   8.3638   8.3638   8.5396   8.5396   8.7509   8.7509
    13.7011  13.7012  13.8209  13.8210  14.3519  14.3521  14.6992  14.7009

 ------ SPIN DOWN ----------


          k = 0.0000 0.0000 0.0000 ( 15339 PWs)   bands (ev):

   -75.8087 -75.8087 -75.8086 -75.8085 -75.8078 -75.8075 -75.8068 -75.8067
   -42.1355 -42.1354 -42.1343 -42.1343 -42.0780 -42.0780 -42.0723 -42.0723
   -41.9706 -41.9703 -41.9702 -41.9701 -41.9275 -41.9272 -41.9227 -41.9226
   -41.8836 -41.8835 -41.8668 -41.8668 -41.7430 -41.7430 -41.7424 -41.7424
   -11.6242 -11.4975 -11.2395 -11.1976 -10.2632 -10.2600 -10.2522 -10.2361
    -9.7268  -9.4941  -9.4842  -9.4417  -9.4143  -9.3572  -9.2987  -9.2170
     0.5595   0.6530   1.0754   1.1737   1.6412   1.7305   2.2347   2.2774
     2.3391   2.6024   2.8749   3.0309   3.0406   3.6491   3.7164   3.8135
     3.8712   3.9462   4.1569   4.1707   4.2289   4.2967   4.3333   4.3542
     4.3596   4.5188   4.5869   4.6342   4.6885   4.7760   4.9483   4.9792
     5.1393   5.1409   5.1554   5.2499   5.2835   5.3119   5.3295   5.4875
     5.6888   5.7034   5.7149   5.9634   6.1244   6.2125   6.2566   6.2699
     9.2515   9.3373   9.5188   9.5772   9.6542   9.6722   9.6893   9.7343
     9.7565   9.8707   9.9483  10.1498  10.1575  10.1621  10.1688  10.1836
    10.2258  10.3219  10.3461  10.3859  10.4153  10.4412  10.4466  10.4506
    10.8525  11.0353  11.0975  11.1173  11.3404  11.3416  11.4093  11.5156
    11.5166  11.5261  11.5617  11.6116  11.6720  11.7801  11.7919  11.9045
    12.0064  12.9762  13.0468  14.5375  15.1067  15.1842  15.2659  15.3610

          k = 0.0000 0.0000-0.3760 ( 15392 PWs)   bands (ev):

   -75.8087 -75.8087 -75.8086 -75.8086 -75.8073 -75.8073 -75.8072 -75.8072
   -42.1349 -42.1349 -42.1348 -42.1348 -42.0751 -42.0751 -42.0751 -42.0751
   -41.9704 -41.9704 -41.9702 -41.9702 -41.9249 -41.9249 -41.9247 -41.9247
   -41.8755 -41.8755 -41.8755 -41.8755 -41.7427 -41.7427 -41.7427 -41.7427
   -11.4184 -11.4184 -11.3622 -11.3622 -10.2671 -10.2671 -10.2530 -10.2530
    -9.6218  -9.6218  -9.4733  -9.4733  -9.3351  -9.3351  -9.2878  -9.2878
     0.8771   0.8771   0.8794   0.8794   2.1067   2.1067   2.1078   2.1078
     2.7198   2.7198   3.0402   3.0402   3.3143   3.3143   3.5940   3.5940
     3.8805   3.8805   4.0924   4.0924   4.2182   4.2182   4.2490   4.2490
     4.3908   4.3908   4.4021   4.4021   4.7864   4.7864   4.8362   4.8362
     5.1357   5.1357   5.1797   5.1797   5.2370   5.2370   5.4449   5.4449
     5.6385   5.6385   5.7549   5.7549   6.0768   6.0768   6.1328   6.1328
     9.6303   9.6303   9.6656   9.6656   9.7477   9.7477   9.7547   9.7547
     9.9085   9.9085   9.9324   9.9324  10.0830  10.0830  10.1329  10.1329
    10.2223  10.2223  10.2997  10.2997  10.3857  10.3857  10.5162  10.5162
    11.0055  11.0055  11.1502  11.1502  11.3432  11.3432  11.4220  11.4220
    11.5634  11.5634  11.5814  11.5814  11.7902  11.7902  11.8266  11.8266
    12.6129  12.6129  13.5933  13.5933  14.4578  14.4578  15.5364  15.5364

          k =-0.4812 0.0000 0.0000 ( 15374 PWs)   bands (ev):

   -75.8087 -75.8087 -75.8085 -75.8085 -75.8078 -75.8078 -75.8067 -75.8067
   -42.1349 -42.1349 -42.1348 -42.1348 -42.0780 -42.0780 -42.0723 -42.0723
   -41.9704 -41.9704 -41.9702 -41.9702 -41.9274 -41.9274 -41.9227 -41.9227
   -41.8835 -41.8835 -41.8668 -41.8668 -41.7427 -41.7427 -41.7427 -41.7427
   -11.2743 -11.2743 -11.0985 -11.0985 -10.5933 -10.5933 -10.4094 -10.4094
    -9.6336  -9.6336  -9.4465  -9.4465  -9.3385  -9.3385  -9.3102  -9.3102
     0.8383   0.8383   0.9515   0.9515   2.4669   2.4669   2.5020   2.5020
     2.7522   2.7522   2.8176   2.8176   3.0418   3.0418   3.3794   3.3794
     3.5027   3.5027   3.6828   3.6828   3.7197   3.7197   3.9997   3.9997
     4.5674   4.5674   4.7147   4.7147   5.1173   5.1173   5.1659   5.1659
     5.2509   5.2509   5.2585   5.2585   5.5838   5.5838   5.6672   5.6672
     5.6879   5.6879   5.8811   5.8811   5.9281   5.9281   6.4220   6.4220
     9.3754   9.3754   9.4616   9.4616   9.6538   9.6538   9.7523   9.7523
     9.9052   9.9052  10.0017  10.0017  10.2027  10.2027  10.2486  10.2486
    10.2630  10.2630  10.3737  10.3737  10.4487  10.4487  10.4712  10.4712
    11.1888  11.1888  11.2121  11.2121  11.2478  11.2478  11.3123  11.3123
    11.4365  11.4365  11.5743  11.5743  11.7459  11.7459  11.8621  11.8621
    13.0696  13.0696  14.1206  14.1206  14.4121  14.4121  14.6743  14.9172

          k =-0.4812 0.0000-0.3760 ( 15436 PWs)   bands (ev):

   -75.8087 -75.8087 -75.8086 -75.8086 -75.8073 -75.8073 -75.8073 -75.8073
   -42.1348 -42.1348 -42.1348 -42.1348 -42.0751 -42.0751 -42.0751 -42.0751
   -41.9704 -41.9704 -41.9702 -41.9702 -41.9249 -41.9249 -41.9248 -41.9248
   -41.8755 -41.8755 -41.8754 -41.8754 -41.7427 -41.7427 -41.7427 -41.7427
   -11.1809 -11.1809 -11.1733 -11.1733 -10.5432 -10.5432 -10.4757 -10.4757
    -9.5896  -9.5896  -9.4901  -9.4901  -9.3453  -9.3453  -9.3254  -9.3254
     0.9600   0.9600   0.9661   0.9661   2.5709   2.5709   2.7986   2.7986
     2.8711   2.8711   2.8831   2.8831   3.0000   3.0000   3.2105   3.2105
     3.5437   3.5437   3.5719   3.5719   3.8062   3.8062   3.9700   3.9700
     4.2898   4.2898   4.4955   4.4955   5.0453   5.0453   5.0637   5.0637
     5.1773   5.1773   5.4048   5.4048   5.5115   5.5115   5.7019   5.7019
     5.7459   5.7459   5.8168   5.8168   5.9311   5.9311   6.1579   6.1579
     9.5963   9.5963   9.6107   9.6107   9.7316   9.7316   9.7417   9.7417
     9.9296   9.9296   9.9798   9.9798  10.1111  10.1111  10.1566  10.1566
    10.2410  10.2410  10.3041  10.3041  10.3808  10.3808  10.4723  10.4723
    10.9543  10.9543  10.9714  10.9714  11.1373  11.1373  11.2557  11.2557
    11.5176  11.5176  11.5490  11.5490  11.7226  11.7226  11.9802  11.9802
    14.0776  14.0776  14.1781  14.1781  14.8657  14.8657  15.0699  15.0699

     the Fermi energy is     9.8246 ev

!    total energy              =   -3488.55842495 Ry

     total all-electron energy =    -25093.864393 Ry
     estimated scf accuracy    <       0.00000004 Ry
     smearing contrib. (-TS)   =      -0.01285710 Ry
     internal energy E=F+TS    =   -3488.54556786 Ry

     The total energy is F=E-TS. E is the sum of the following terms:
     one-electron contribution =   -1539.47181988 Ry
     hartree contribution      =     890.70087586 Ry
     xc contribution           =    -367.37241656 Ry
     ewald contribution        =   -1514.66131949 Ry
     one-center paw contrib.   =    -957.74088779 Ry

     total magnetization       =    32.00 Bohr mag/cell
     absolute magnetization    =    32.09 Bohr mag/cell

     convergence has been achieved in  38 iterations

     negative rho (up, down):  0.000E+00 3.469E-03

     Forces acting on atoms (cartesian axes, Ry/au):

     atom    1 type  1   force =     0.00000000    0.00000000    0.00000000
     atom    2 type  1   force =     0.00000000   -0.00000000    0.00000000
     atom    3 type  1   force =    -0.00000000    0.00000000    0.00000000
     atom    4 type  1   force =    -0.00000000    0.00000000    0.00000000
     atom    5 type  1   force =     0.00382403    0.00274153    0.00000000
     atom    6 type  1   force =    -0.00382403   -0.00274153    0.00000000
     atom    7 type  1   force =     0.00382403   -0.00274153   -0.00000000
     atom    8 type  1   force =    -0.00382403    0.00274153    0.00000000
     atom    9 type  2   force =     0.14896692   -0.04381278    0.00000000
     atom   10 type  2   force =    -0.14896692    0.04381278    0.00000000
     atom   11 type  2   force =     0.14896692    0.04381278   -0.00000000
     atom   12 type  2   force =    -0.14896692   -0.04381278   -0.00000000
     atom   13 type  3   force =    -0.02530177    0.01350875    0.00000000
     atom   14 type  3   force =     0.02530177   -0.01350875    0.00000000
     atom   15 type  3   force =    -0.02530177   -0.01350875    0.00000000
     atom   16 type  3   force =     0.02530177    0.01350875   -0.00000000
     atom   17 type  3   force =     0.02787052   -0.00314886    0.00000000
     atom   18 type  3   force =    -0.02787052    0.00314886    0.00000000
     atom   19 type  3   force =     0.02787052    0.00314886    0.00000000
     atom   20 type  3   force =    -0.02787052   -0.00314886    0.00000000
     atom   21 type  3   force =    -0.05214844    0.01810413   -0.04343576
     atom   22 type  3   force =     0.05214844   -0.01810413    0.04343576
     atom   23 type  3   force =    -0.05214844   -0.01810413    0.04343576
     atom   24 type  3   force =     0.05214844    0.01810413   -0.04343576
     atom   25 type  3   force =     0.05214844   -0.01810413   -0.04343576
     atom   26 type  3   force =    -0.05214844    0.01810413    0.04343576
     atom   27 type  3   force =     0.05214844    0.01810413    0.04343576
     atom   28 type  3   force =    -0.05214844   -0.01810413   -0.04343576

     Total force =     0.377412     Total SCF correction =     0.000380


     Computing stress (Cartesian axis) and pressure


     negative rho (up, down):  0.000E+00 3.469E-03
          total   stress  (Ry/bohr**3)                   (kbar)     P=      -86.99
  -0.00042925   0.00000000   0.00000000          -63.15        0.00        0.00
   0.00000000  -0.00037445   0.00000000            0.00      -55.08        0.00
   0.00000000   0.00000000  -0.00097038            0.00        0.00     -142.75

     Energy error            =      4.2E-01
     Gradient error          =      1.5E-01
     Cell gradient error     =      9.7E-04


     number of scf cycles    =   2
     number of bfgs steps    =   1

     enthalpy old            =   -3488.1344115912 Ry
     enthalpy new            =   -3488.5584249531 Ry

     CASE: enthalpy_new < enthalpy_old

     new trust radius        =       0.1387222840 bohr
     new conv_thr            =       0.0000001000 Ry

     new unit-cell volume =   2150.60579 a.u.^3 (   318.68690 Ang^3 )
     density =      4.24705 g/cm^3

CELL_PARAMETERS (angstrom)
   4.912678154   0.000000000   0.000000000
   0.000000000  10.414988074   0.000000000
   0.000000000   0.000000000   6.228552369

ATOMIC_POSITIONS (angstrom)
Fe            0.0000000000        0.0000000000        0.0000000000
Fe            2.4563390770        5.2074940368        0.0000000000
Fe           -0.0000000000        0.0000000000        3.1142761844
Fe            2.4563390770        5.2074940368        3.1142761844
Fe            0.0792277488        2.8936905287        4.6714142766
Fe            4.8334504051        7.5212975449        1.5571380922
Fe            2.5355668258        2.3138035081        1.5571380922
Fe            2.3771113281        8.1011845655        4.6714142766
Si            0.3505719302        4.2570463643        1.5571380922
Si            4.5621062237        6.1579417093        4.6714142766
Si            2.8069110072        0.9504476725        4.6714142766
Si            2.1057671467        9.4645404011        1.5571380922
O             1.1418540833        0.9059225744        4.6714142766
O             3.7708240706        9.5090654992        1.5571380922
O             3.5981931603        4.3015714624        1.5571380922
O             1.3144849936        6.1134166112        4.6714142766
O             1.4045894503        0.5506947458        1.5571380922
O             3.5080887036        9.8642933278        4.6714142766
O             3.8609285273        4.6567992910        4.6714142766
O             1.0517496266        5.7581887826        1.5571380922
O             1.1182056203        3.5308534646        2.8909371335
O             3.7944725336        6.8841346090        3.3376152354
O             3.5745446973        1.6766405722        3.3376152354
O             1.3381334566        8.7383475014        2.8909371335
O             3.7944725336        6.8841346090        6.0052133179
O             1.1182056203        3.5308534646        0.2233390510
O             1.3381334566        8.7383475014        0.2233390510
O             3.5745446973        1.6766405722        6.0052133179



     Writing output data file ./out/oliv.save/
     NEW-OLD atomic charge density approx. for the potential

     Check: negative core charge=   -0.000002

     negative rho (up, down):  0.000E+00 3.452E-03
     extrapolated charge  233.65652, renormalised to  240.00000
     Generating pointlists ...

     total cpu time spent up to now is     3948.5 secs

     Self-consistent Calculation

     iteration #  1     ecut=    60.00 Ry     beta= 0.30
     Davidson diagonalization with overlap
     c_bands:  1 eigenvalues not converged
     c_bands:  2 eigenvalues not converged
     c_bands:  2 eigenvalues not converged
     c_bands:  1 eigenvalues not converged
     c_bands:  2 eigenvalues not converged
     c_bands:  2 eigenvalues not converged
     ethr =  1.00E-06,  avg # of iterations = 29.2

     negative rho (up, down):  0.000E+00 1.527E-03

     total cpu time spent up to now is     4245.1 secs

     total energy              =   -3480.15014799 Ry
     estimated scf accuracy    <      13.02722254 Ry

     total magnetization       =    21.94 Bohr mag/cell
     absolute magnetization    =    22.17 Bohr mag/cell

     iteration #  2     ecut=    60.00 Ry     beta= 0.30
     Davidson diagonalization with overlap
     ethr =  5.43E-03,  avg # of iterations =  5.5

     negative rho (up, down):  0.000E+00 1.541E-03

     total cpu time spent up to now is     4308.6 secs

     total energy              =   -3482.33643285 Ry
     estimated scf accuracy    <     114.75683023 Ry

     total magnetization       =     7.04 Bohr mag/cell
     absolute magnetization    =     7.82 Bohr mag/cell

     iteration #  3     ecut=    60.00 Ry     beta= 0.30
     Davidson diagonalization with overlap
     ethr =  5.43E-03,  avg # of iterations =  4.8

     negative rho (up, down):  0.000E+00 1.645E-03

     total cpu time spent up to now is     4355.8 secs

     total energy              =   -3486.98196248 Ry
     estimated scf accuracy    <      36.59414427 Ry

     total magnetization       =    19.17 Bohr mag/cell
     absolute magnetization    =    19.78 Bohr mag/cell

     iteration #  4     ecut=    60.00 Ry     beta= 0.30
     Davidson diagonalization with overlap
     ethr =  5.43E-03,  avg # of iterations =  2.0

     negative rho (up, down):  0.000E+00 2.209E-03

     total cpu time spent up to now is     4401.9 secs

     total energy              =   -3488.45993493 Ry
     estimated scf accuracy    <       3.74999438 Ry

     total magnetization       =    31.00 Bohr mag/cell
     absolute magnetization    =    31.12 Bohr mag/cell

     iteration #  5     ecut=    60.00 Ry     beta= 0.30
     Davidson diagonalization with overlap
     ethr =  1.56E-03,  avg # of iterations =  4.2

     negative rho (up, down):  0.000E+00 2.541E-03

     total cpu time spent up to now is     4450.2 secs

     total energy              =   -3488.61696718 Ry
     estimated scf accuracy    <       1.46073227 Ry

     total magnetization       =    32.50 Bohr mag/cell
     absolute magnetization    =    32.59 Bohr mag/cell

     iteration #  6     ecut=    60.00 Ry     beta= 0.30
     Davidson diagonalization with overlap
     ethr =  6.09E-04,  avg # of iterations =  2.8

     negative rho (up, down):  0.000E+00 2.755E-03

     total cpu time spent up to now is     4500.2 secs

     total energy              =   -3488.63115670 Ry
     estimated scf accuracy    <       0.87630587 Ry

     total magnetization       =    32.43 Bohr mag/cell
     absolute magnetization    =    32.50 Bohr mag/cell

     iteration #  7     ecut=    60.00 Ry     beta= 0.30
     Davidson diagonalization with overlap
     ethr =  3.65E-04,  avg # of iterations =  2.8

     negative rho (up, down):  0.000E+00 3.020E-03

     total cpu time spent up to now is     4543.6 secs

     total energy              =   -3488.61730804 Ry
     estimated scf accuracy    <       0.43693193 Ry

     total magnetization       =    32.15 Bohr mag/cell
     absolute magnetization    =    32.24 Bohr mag/cell

     iteration #  8     ecut=    60.00 Ry     beta= 0.30
     Davidson diagonalization with overlap
     ethr =  1.82E-04,  avg # of iterations =  4.8

     negative rho (up, down):  0.000E+00 3.118E-03

     total cpu time spent up to now is     4593.5 secs

     total energy              =   -3488.64192431 Ry
     estimated scf accuracy    <       0.14005149 Ry

     total magnetization       =    32.00 Bohr mag/cell
     absolute magnetization    =    32.10 Bohr mag/cell

     iteration #  9     ecut=    60.00 Ry     beta= 0.30
     Davidson diagonalization with overlap
     ethr =  5.84E-05,  avg # of iterations =  6.5

     negative rho (up, down):  0.000E+00 3.213E-03

     total cpu time spent up to now is     4645.3 secs

     total energy              =   -3488.65076951 Ry
     estimated scf accuracy    <       0.06923266 Ry

     total magnetization       =    32.00 Bohr mag/cell
     absolute magnetization    =    32.10 Bohr mag/cell

     iteration # 10     ecut=    60.00 Ry     beta= 0.30
     Davidson diagonalization with overlap
     ethr =  2.88E-05,  avg # of iterations =  2.2

     negative rho (up, down):  0.000E+00 3.422E-03

     total cpu time spent up to now is     4689.1 secs

     total energy              =   -3488.64352848 Ry
     estimated scf accuracy    <       0.03795675 Ry

     total magnetization       =    32.00 Bohr mag/cell
     absolute magnetization    =    32.10 Bohr mag/cell

     iteration # 11     ecut=    60.00 Ry     beta= 0.30
     Davidson diagonalization with overlap
     ethr =  1.58E-05,  avg # of iterations =  5.8

     negative rho (up, down):  0.000E+00 3.435E-03

     total cpu time spent up to now is     4738.5 secs

     total energy              =   -3488.64936364 Ry
     estimated scf accuracy    <       0.00178938 Ry

     total magnetization       =    32.00 Bohr mag/cell
     absolute magnetization    =    32.09 Bohr mag/cell

     iteration # 12     ecut=    60.00 Ry     beta= 0.30
     Davidson diagonalization with overlap
     c_bands:  1 eigenvalues not converged
     c_bands:  1 eigenvalues not converged
     c_bands:  1 eigenvalues not converged
     c_bands:  1 eigenvalues not converged
     ethr =  7.46E-07,  avg # of iterations = 13.5

     negative rho (up, down):  0.000E+00 3.424E-03

     total cpu time spent up to now is     4840.5 secs

     total energy              =   -3488.65153071 Ry
     estimated scf accuracy    <       0.00017713 Ry

     total magnetization       =    32.00 Bohr mag/cell
     absolute magnetization    =    32.09 Bohr mag/cell

     iteration # 13     ecut=    60.00 Ry     beta= 0.30
     Davidson diagonalization with overlap
     ethr =  7.38E-08,  avg # of iterations =  6.4

     negative rho (up, down):  0.000E+00 3.421E-03

     total cpu time spent up to now is     4895.0 secs

     total energy              =   -3488.65161489 Ry
     estimated scf accuracy    <       0.00018338 Ry

     total magnetization       =    32.00 Bohr mag/cell
     absolute magnetization    =    32.09 Bohr mag/cell

     iteration # 14     ecut=    60.00 Ry     beta= 0.30
     Davidson diagonalization with overlap
     ethr =  7.38E-08,  avg # of iterations =  2.0

     negative rho (up, down):  0.000E+00 3.423E-03

     total cpu time spent up to now is     4941.8 secs

     total energy              =   -3488.65164234 Ry
     estimated scf accuracy    <       0.00014157 Ry

     total magnetization       =    32.00 Bohr mag/cell
     absolute magnetization    =    32.09 Bohr mag/cell

     iteration # 15     ecut=    60.00 Ry     beta= 0.30
     Davidson diagonalization with overlap
     ethr =  5.90E-08,  avg # of iterations =  1.6

     negative rho (up, down):  0.000E+00 3.419E-03

     total cpu time spent up to now is     4980.7 secs

     total energy              =   -3488.65163995 Ry
     estimated scf accuracy    <       0.00006618 Ry

     total magnetization       =    32.00 Bohr mag/cell
     absolute magnetization    =    32.09 Bohr mag/cell

     iteration # 16     ecut=    60.00 Ry     beta= 0.30
     Davidson diagonalization with overlap
     ethr =  2.76E-08,  avg # of iterations =  3.2

     negative rho (up, down):  0.000E+00 3.419E-03

     total cpu time spent up to now is     5032.9 secs

     total energy              =   -3488.65167814 Ry
     estimated scf accuracy    <       0.00001174 Ry

     total magnetization       =    32.00 Bohr mag/cell
     absolute magnetization    =    32.09 Bohr mag/cell

     iteration # 17     ecut=    60.00 Ry     beta= 0.30
     Davidson diagonalization with overlap
     ethr =  4.89E-09,  avg # of iterations =  4.5

     negative rho (up, down):  0.000E+00 3.418E-03

     total cpu time spent up to now is     5087.7 secs

     total energy              =   -3488.65168038 Ry
     estimated scf accuracy    <       0.00000645 Ry

     total magnetization       =    32.00 Bohr mag/cell
     absolute magnetization    =    32.09 Bohr mag/cell

     iteration # 18     ecut=    60.00 Ry     beta= 0.30
     Davidson diagonalization with overlap
     ethr =  2.69E-09,  avg # of iterations =  4.5

     negative rho (up, down):  0.000E+00 3.418E-03

     total cpu time spent up to now is     5146.7 secs

     total energy              =   -3488.65168657 Ry
     estimated scf accuracy    <       0.00000615 Ry

     total magnetization       =    32.00 Bohr mag/cell
     absolute magnetization    =    32.09 Bohr mag/cell

     iteration # 19     ecut=    60.00 Ry     beta= 0.30
     Davidson diagonalization with overlap
     ethr =  2.56E-09,  avg # of iterations =  1.8

     negative rho (up, down):  0.000E+00 3.417E-03

     total cpu time spent up to now is     5191.3 secs

     total energy              =   -3488.65168770 Ry
     estimated scf accuracy    <       0.00000178 Ry

     total magnetization       =    32.00 Bohr mag/cell
     absolute magnetization    =    32.09 Bohr mag/cell

     iteration # 20     ecut=    60.00 Ry     beta= 0.30
     Davidson diagonalization with overlap
     ethr =  7.43E-10,  avg # of iterations =  4.9

     negative rho (up, down):  0.000E+00 3.416E-03

     total cpu time spent up to now is     5254.1 secs

     total energy              =   -3488.65168931 Ry
     estimated scf accuracy    <       0.00000241 Ry

     total magnetization       =    32.00 Bohr mag/cell
     absolute magnetization    =    32.09 Bohr mag/cell

     iteration # 21     ecut=    60.00 Ry     beta= 0.30
     Davidson diagonalization with overlap
     ethr =  7.43E-10,  avg # of iterations =  2.0

     negative rho (up, down):  0.000E+00 3.417E-03

     total cpu time spent up to now is     5299.5 secs

     total energy              =   -3488.65168922 Ry
     estimated scf accuracy    <       0.00000131 Ry

     total magnetization       =    32.00 Bohr mag/cell
     absolute magnetization    =    32.09 Bohr mag/cell

     iteration # 22     ecut=    60.00 Ry     beta= 0.30
     Davidson diagonalization with overlap
     ethr =  5.46E-10,  avg # of iterations =  4.5

     negative rho (up, down):  0.000E+00 3.417E-03

     total cpu time spent up to now is     5369.0 secs

     total energy              =   -3488.65169070 Ry
     estimated scf accuracy    <       0.00000095 Ry

     total magnetization       =    32.00 Bohr mag/cell
     absolute magnetization    =    32.09 Bohr mag/cell

     iteration # 23     ecut=    60.00 Ry     beta= 0.30
     Davidson diagonalization with overlap
     ethr =  3.95E-10,  avg # of iterations =  2.0

     negative rho (up, down):  0.000E+00 3.417E-03

     total cpu time spent up to now is     5417.4 secs

     total energy              =   -3488.65169089 Ry
     estimated scf accuracy    <       0.00000015 Ry

     total magnetization       =    32.00 Bohr mag/cell
     absolute magnetization    =    32.09 Bohr mag/cell

     iteration # 24     ecut=    60.00 Ry     beta= 0.30
     Davidson diagonalization with overlap
     ethr =  6.39E-11,  avg # of iterations =  6.9

     negative rho (up, down):  0.000E+00 3.418E-03

     total cpu time spent up to now is     5513.5 secs

     total energy              =   -3488.65169115 Ry
     estimated scf accuracy    <       0.00000061 Ry

     total magnetization       =    32.00 Bohr mag/cell
     absolute magnetization    =    32.09 Bohr mag/cell

     iteration # 25     ecut=    60.00 Ry     beta= 0.30
     Davidson diagonalization with overlap
     ethr =  6.39E-11,  avg # of iterations =  2.8

     negative rho (up, down):  0.000E+00 3.418E-03

     total cpu time spent up to now is     5558.7 secs

     total energy              =   -3488.65169113 Ry
     estimated scf accuracy    <       0.00000021 Ry

     total magnetization       =    32.00 Bohr mag/cell
     absolute magnetization    =    32.09 Bohr mag/cell

     iteration # 26     ecut=    60.00 Ry     beta= 0.30
     Davidson diagonalization with overlap
     ethr =  6.39E-11,  avg # of iterations =  5.0

     negative rho (up, down):  0.000E+00 3.417E-03

     Magnetic moment per site:
     atom:    1    charge:   13.3549    magn:    3.3590    constr:    0.0000
     atom:    2    charge:   13.3549    magn:    3.3590    constr:    0.0000
     atom:    3    charge:   13.3549    magn:    3.3590    constr:    0.0000
     atom:    4    charge:   13.3549    magn:    3.3590    constr:    0.0000
     atom:    5    charge:   13.3258    magn:    3.3813    constr:    0.0000
     atom:    6    charge:   13.3258    magn:    3.3813    constr:    0.0000
     atom:    7    charge:   13.3258    magn:    3.3813    constr:    0.0000
     atom:    8    charge:   13.3258    magn:    3.3813    constr:    0.0000
     atom:    9    charge:    0.3745    magn:    0.0036    constr:    0.0000
     atom:   10    charge:    0.3745    magn:    0.0036    constr:    0.0000
     atom:   11    charge:    0.3745    magn:    0.0036    constr:    0.0000
     atom:   12    charge:    0.3745    magn:    0.0036    constr:    0.0000
     atom:   13    charge:    4.0134    magn:    0.1008    constr:    0.0000
     atom:   14    charge:    4.0134    magn:    0.1008    constr:    0.0000
     atom:   15    charge:    4.0134    magn:    0.1008    constr:    0.0000
     atom:   16    charge:    4.0134    magn:    0.1008    constr:    0.0000
     atom:   17    charge:    4.0240    magn:    0.1168    constr:    0.0000
     atom:   18    charge:    4.0240    magn:    0.1168    constr:    0.0000
     atom:   19    charge:    4.0240    magn:    0.1168    constr:    0.0000
     atom:   20    charge:    4.0240    magn:    0.1168    constr:    0.0000
     atom:   21    charge:    3.9957    magn:    0.1160    constr:    0.0000
     atom:   22    charge:    3.9957    magn:    0.1160    constr:    0.0000
     atom:   23    charge:    3.9957    magn:    0.1160    constr:    0.0000
     atom:   24    charge:    3.9957    magn:    0.1160    constr:    0.0000
     atom:   25    charge:    3.9957    magn:    0.1160    constr:    0.0000
     atom:   26    charge:    3.9957    magn:    0.1160    constr:    0.0000
     atom:   27    charge:    3.9957    magn:    0.1160    constr:    0.0000
     atom:   28    charge:    3.9957    magn:    0.1160    constr:    0.0000

     total cpu time spent up to now is     5625.8 secs

     End of self-consistent calculation

 ------ SPIN UP ------------


          k = 0.0000 0.0000 0.0000 ( 15339 PWs)   bands (ev):

   -79.6313 -79.6313 -79.6313 -79.6313 -79.5446 -79.5445 -79.5433 -79.5433
   -46.2847 -46.2847 -46.2838 -46.2838 -46.0297 -46.0297 -46.0236 -46.0236
   -45.6845 -45.6844 -45.6843 -45.6843 -45.4926 -45.4925 -45.4909 -45.4909
   -45.2915 -45.2915 -45.2731 -45.2731 -45.0625 -45.0625 -45.0619 -45.0619
   -11.5603 -11.3841 -11.0695 -11.0005 -10.0847 -10.0842 -10.0392  -9.9968
    -9.8798  -9.6997  -9.6783  -9.6755  -9.6232  -9.5891  -9.5466  -9.4603
     0.6613   0.7528   1.2447   1.3659   1.3959   1.4755   2.0944   2.1009
     2.2021   2.5049   2.7025   2.8586   2.9004   3.5442   3.5528   3.5640
     3.7200   3.8178   3.8278   3.8526   3.9585   4.0233   4.0645   4.1156
     4.1260   4.1716   4.1740   4.3078   4.3151   4.4630   4.4768   4.4910
     4.5645   4.6539   4.6670   4.8282   4.8769   4.8940   4.9292   5.0374
     5.1986   5.3107   5.5349   5.6254   5.6814   5.9603   5.9697   6.0453
     6.4615   6.6678   6.6850   6.7015   6.7430   6.7472   6.8187   6.8922
     6.9944   6.9995   7.0290   7.0446   7.0865   7.1528   7.3585   7.3865
     7.4400   7.4545   7.6392   7.6440   7.6777   7.7333   7.7849   7.9071
     7.9187   7.9478   7.9847   7.9900   8.2887   8.4710   8.4798   8.5999
     8.7087   8.7550   8.7619   8.9083   8.9551   8.9903   9.0018   9.3052
    10.7834  12.9003  13.1963  14.6277  15.4533  15.5118  15.5900  15.7783

          k = 0.0000 0.0000-0.3816 ( 15392 PWs)   bands (ev):

   -79.6314 -79.6314 -79.6313 -79.6313 -79.5440 -79.5440 -79.5440 -79.5440
   -46.2843 -46.2843 -46.2842 -46.2842 -46.0266 -46.0266 -46.0266 -46.0266
   -45.6844 -45.6844 -45.6844 -45.6844 -45.4917 -45.4917 -45.4917 -45.4917
   -45.2823 -45.2823 -45.2823 -45.2823 -45.0622 -45.0622 -45.0622 -45.0622
   -11.3034 -11.3034 -11.2168 -11.2168 -10.0629 -10.0629 -10.0397 -10.0397
    -9.8263  -9.8263  -9.6695  -9.6695  -9.5731  -9.5731  -9.5131  -9.5131
     1.0079   1.0079   1.0278   1.0278   1.8701   1.8701   1.9028   1.9028
     2.5757   2.5757   2.9407   2.9407   3.2562   3.2562   3.4595   3.4595
     3.5318   3.5318   3.7291   3.7291   3.9537   3.9537   4.0811   4.0811
     4.0996   4.0996   4.2375   4.2375   4.3002   4.3002   4.3627   4.3627
     4.6670   4.6670   4.7702   4.7702   4.7937   4.7937   5.1614   5.1614
     5.2774   5.2774   5.4302   5.4302   5.5359   5.5359   5.5900   5.5900
     6.7157   6.7157   6.7178   6.7178   6.8058   6.8058   6.8455   6.8455
     7.0970   7.0970   7.1011   7.1011   7.1803   7.1803   7.3336   7.3336
     7.6440   7.6440   7.6512   7.6512   7.7666   7.7666   7.8557   7.8557
     7.9910   7.9910   8.1137   8.1137   8.3098   8.3098   8.3596   8.3596
     8.5547   8.5547   8.6309   8.6309   8.8668   8.8668   9.0963   9.0963
    12.6388  12.6388  13.7225  13.7225  14.5912  14.5912  15.8909  15.8909

          k =-0.4839 0.0000 0.0000 ( 15374 PWs)   bands (ev):

   -79.6314 -79.6314 -79.6313 -79.6313 -79.5446 -79.5446 -79.5433 -79.5433
   -46.2842 -46.2842 -46.2842 -46.2842 -46.0297 -46.0297 -46.0236 -46.0236
   -45.6844 -45.6844 -45.6844 -45.6844 -45.4926 -45.4926 -45.4909 -45.4909
   -45.2915 -45.2915 -45.2731 -45.2731 -45.0622 -45.0622 -45.0622 -45.0622
   -11.1663 -11.1663 -10.9302 -10.9302 -10.4277 -10.4277 -10.1805 -10.1805
    -9.8329  -9.8329  -9.6325  -9.6325  -9.5801  -9.5801  -9.5486  -9.5486
     0.8451   0.8451   1.0158   1.0158   2.4277   2.4277   2.5178   2.5178
     2.6976   2.6976   2.7550   2.7550   2.9954   2.9954   3.1015   3.1015
     3.3042   3.3042   3.3776   3.3776   3.4276   3.4276   3.8799   3.8799
     4.1414   4.1414   4.3386   4.3386   4.4974   4.4974   4.6327   4.6327
     4.6438   4.6438   4.7961   4.7961   5.0667   5.0667   5.2466   5.2466
     5.2819   5.2819   5.5571   5.5571   5.6694   5.6694   6.2242   6.2242
     6.6275   6.6275   6.7016   6.7016   6.8107   6.8107   6.8547   6.8547
     6.9191   6.9191   6.9541   6.9541   7.1469   7.1469   7.3503   7.3503
     7.3776   7.3776   7.6413   7.6413   7.7268   7.7268   7.8795   7.8795
     8.1746   8.1746   8.2838   8.2838   8.3081   8.3081   8.4158   8.4158
     8.5972   8.5972   8.6915   8.6915   8.8884   8.8884   9.0319   9.0319
    13.3011  13.3011  14.3207  14.3207  14.6268  14.6269  14.7815  14.7818

          k =-0.4839 0.0000-0.3816 ( 15436 PWs)   bands (ev):

   -79.6314 -79.6314 -79.6314 -79.6314 -79.5440 -79.5440 -79.5440 -79.5440
   -46.2842 -46.2842 -46.2842 -46.2842 -46.0266 -46.0266 -46.0266 -46.0266
   -45.6844 -45.6844 -45.6844 -45.6844 -45.4918 -45.4918 -45.4917 -45.4917
   -45.2823 -45.2823 -45.2823 -45.2823 -45.0622 -45.0622 -45.0622 -45.0622
   -11.0558 -11.0558 -11.0193 -11.0193 -10.3206 -10.3206 -10.3088 -10.3088
    -9.7972  -9.7972  -9.6986  -9.6986  -9.5752  -9.5752  -9.5452  -9.5452
     1.0096   1.0096   1.0158   1.0158   2.4501   2.4501   2.6399   2.6399
     2.8126   2.8126   2.9186   2.9186   2.9243   2.9243   3.1814   3.1814
     3.2972   3.2972   3.3535   3.3535   3.5467   3.5467   3.5574   3.5574
     3.9775   3.9775   4.2133   4.2133   4.7263   4.7263   4.7340   4.7340
     4.7378   4.7378   4.9635   4.9635   4.9641   4.9641   5.0800   5.0800
     5.2723   5.2723   5.2925   5.2925   5.6376   5.6376   5.7605   5.7605
     6.6338   6.6338   6.7532   6.7532   6.8656   6.8656   6.8772   6.8772
     6.9394   6.9394   7.0822   7.0822   7.2657   7.2657   7.3087   7.3087
     7.3983   7.3983   7.5470   7.5470   7.6486   7.6486   7.7361   7.7361
     8.0301   8.0301   8.0602   8.0602   8.0772   8.0772   8.4166   8.4166
     8.6685   8.6685   8.7771   8.7771   8.8779   8.8779   9.1341   9.1341
    14.2983  14.2983  14.4928  14.4928  14.9428  14.9428  15.2604  15.2642

 ------ SPIN DOWN ----------


          k = 0.0000 0.0000 0.0000 ( 15339 PWs)   bands (ev):

   -75.4506 -75.4505 -75.4504 -75.4503 -75.4155 -75.4154 -75.4141 -75.4141
   -41.7787 -41.7787 -41.7773 -41.7773 -41.6941 -41.6940 -41.6859 -41.6858
   -41.6217 -41.6216 -41.6213 -41.6213 -41.5306 -41.5303 -41.5277 -41.5276
   -41.5000 -41.4999 -41.4777 -41.4776 -41.3810 -41.3810 -41.3803 -41.3803
   -11.3492 -11.1753 -10.8632 -10.7940  -9.8703  -9.8605  -9.8116  -9.7723
    -9.6465  -9.4624  -9.4366  -9.4260  -9.3795  -9.3517  -9.2993  -9.2172
     0.9197   1.0002   1.4375   1.5464   1.7354   1.8275   2.4429   2.5096
     2.5207   2.9020   3.1035   3.1276   3.2951   3.8230   3.8673   3.9161
     4.1900   4.3986   4.4534   4.4836   4.4951   4.6394   4.6402   4.6734
     4.7643   4.7653   4.8226   4.8341   5.0522   5.1087   5.1532   5.2195
     5.2688   5.3044   5.4095   5.4352   5.4914   5.4953   5.4976   5.7206
     5.8983   5.9685   6.0137   6.1938   6.3159   6.4124   6.4156   6.4988
     9.6326   9.7163   9.9025   9.9371   9.9722  10.0178  10.0280  10.1006
    10.1008  10.2221  10.3124  10.5078  10.5111  10.5137  10.5174  10.5405
    10.5728  10.7044  10.7372  10.7838  10.8228  10.8453  10.8937  10.9147
    11.3772  11.4380  11.4909  11.5187  11.7167  11.7773  11.8596  11.8646
    11.9349  11.9625  12.0027  12.0176  12.0741  12.2025  12.2262  12.3270
    12.4202  13.4919  13.6678  15.0780  15.7659  15.8654  15.8741  15.9321

          k = 0.0000 0.0000-0.3816 ( 15392 PWs)   bands (ev):

   -75.4505 -75.4505 -75.4505 -75.4505 -75.4149 -75.4149 -75.4148 -75.4148
   -41.7780 -41.7780 -41.7780 -41.7780 -41.6899 -41.6899 -41.6898 -41.6898
   -41.6215 -41.6215 -41.6214 -41.6214 -41.5290 -41.5290 -41.5289 -41.5289
   -41.4890 -41.4890 -41.4890 -41.4890 -41.3806 -41.3806 -41.3806 -41.3806
   -11.0939 -11.0939 -11.0094 -11.0094  -9.8371  -9.8371  -9.8202  -9.8202
    -9.5899  -9.5899  -9.4266  -9.4266  -9.3311  -9.3311  -9.2685  -9.2685
     1.2437   1.2437   1.2606   1.2606   2.2224   2.2224   2.2371   2.2371
     2.9290   2.9290   3.2855   3.2855   3.6219   3.6219   3.8291   3.8291
     4.0774   4.0774   4.3008   4.3008   4.4805   4.4805   4.5654   4.5654
     4.6894   4.6894   4.7776   4.7776   5.0114   5.0114   5.0945   5.0945
     5.3489   5.3489   5.4474   5.4474   5.5064   5.5064   5.6561   5.6561
     5.7878   5.7878   5.9300   5.9300   6.2951   6.2951   6.3579   6.3579
     9.9985   9.9985  10.0237  10.0237  10.0556  10.0556  10.0924  10.0924
    10.2943  10.2943  10.3293  10.3293  10.4819  10.4819  10.4896  10.4896
    10.6092  10.6092  10.6709  10.6709  10.7704  10.7704  10.8939  10.8939
    11.3775  11.3775  11.5222  11.5222  11.7894  11.7894  11.8598  11.8598
    11.9773  11.9773  11.9922  11.9922  12.2128  12.2128  12.2653  12.2653
    13.1832  13.1832  14.1846  14.1846  15.0387  15.0387  16.1740  16.1740

          k =-0.4839 0.0000 0.0000 ( 15374 PWs)   bands (ev):

   -75.4505 -75.4505 -75.4504 -75.4504 -75.4156 -75.4156 -75.4141 -75.4141
   -41.7780 -41.7780 -41.7780 -41.7780 -41.6941 -41.6941 -41.6859 -41.6859
   -41.6216 -41.6216 -41.6214 -41.6214 -41.5305 -41.5305 -41.5277 -41.5277
   -41.4999 -41.4999 -41.4777 -41.4777 -41.3807 -41.3807 -41.3806 -41.3806
   -10.9594 -10.9594 -10.7138 -10.7138 -10.2105 -10.2105  -9.9661  -9.9661
    -9.5879  -9.5879  -9.3921  -9.3921  -9.3349  -9.3349  -9.3091  -9.3091
     1.1261   1.1261   1.2271   1.2271   2.7443   2.7443   2.8281   2.8281
     3.0977   3.0977   3.1476   3.1476   3.4169   3.4169   3.5568   3.5568
     3.7756   3.7756   3.8149   3.8149   3.8260   3.8260   4.2307   4.2307
     4.7524   4.7524   4.9340   4.9340   5.2889   5.2889   5.3973   5.3973
     5.4895   5.4895   5.5365   5.5365   5.7374   5.7374   5.8172   5.8172
     5.9135   5.9135   6.2105   6.2105   6.2308   6.2308   6.6583   6.6583
     9.6947   9.6947   9.8520   9.8520   9.9996   9.9996  10.1098  10.1098
    10.2248  10.2248  10.3633  10.3633  10.5596  10.5596  10.6180  10.6180
    10.6292  10.6292  10.7654  10.7654  10.8458  10.8458  10.9301  10.9301
    11.5829  11.5829  11.5940  11.5940  11.6253  11.6253  11.7332  11.7332
    11.8841  11.8841  11.9944  11.9944  12.1962  12.1962  12.2658  12.2658
    13.7096  13.7096  14.6587  14.6587  15.1041  15.1042  15.3750  15.3757

          k =-0.4839 0.0000-0.3816 ( 15436 PWs)   bands (ev):

   -75.4506 -75.4506 -75.4505 -75.4505 -75.4149 -75.4149 -75.4149 -75.4149
   -41.7780 -41.7780 -41.7780 -41.7780 -41.6899 -41.6899 -41.6898 -41.6898
   -41.6216 -41.6216 -41.6214 -41.6214 -41.5290 -41.5290 -41.5289 -41.5289
   -41.4890 -41.4890 -41.4890 -41.4890 -41.3806 -41.3806 -41.3806 -41.3806
   -10.8452 -10.8452 -10.8085 -10.8085 -10.1043 -10.1043 -10.0915 -10.0915
    -9.5530  -9.5530  -9.4555  -9.4555  -9.3321  -9.3321  -9.3058  -9.3058
     1.2595   1.2595   1.2803   1.2803   2.8524   2.8524   3.0868   3.0868
     3.1950   3.1950   3.2807   3.2807   3.2841   3.2841   3.5280   3.5280
     3.7128   3.7128   3.7151   3.7151   4.0694   4.0694   4.0798   4.0798
     4.4220   4.4220   4.6945   4.6945   5.2537   5.2537   5.2829   5.2829
     5.4574   5.4574   5.6362   5.6362   5.7879   5.7879   5.9114   5.9114
     5.9812   5.9812   6.0147   6.0147   6.1757   6.1757   6.3751   6.3751
     9.9364   9.9364   9.9607   9.9607  10.0604  10.0604  10.0777  10.0777
    10.3434  10.3434  10.3642  10.3642  10.5152  10.5152  10.5394  10.5394
    10.5924  10.5924  10.6666  10.6666  10.7674  10.7674  10.8683  10.8683
    11.3429  11.3429  11.3666  11.3666  11.5608  11.5608  11.6700  11.6700
    11.9436  11.9436  11.9777  11.9777  12.1216  12.1216  12.3960  12.3960
    14.6854  14.6854  14.8715  14.8715  15.4881  15.4881  15.6927  15.9120

     the Fermi energy is    10.1753 ev

!    total energy              =   -3488.65169122 Ry

     total all-electron energy =    -25093.957659 Ry
     estimated scf accuracy    <          9.4E-09 Ry
     smearing contrib. (-TS)   =      -0.01087984 Ry
     internal energy E=F+TS    =   -3488.64081138 Ry

     The total energy is F=E-TS. E is the sum of the following terms:
     one-electron contribution =   -1520.25372457 Ry
     hartree contribution      =     884.05952474 Ry
     xc contribution           =    -367.87510172 Ry
     ewald contribution        =   -1526.83087625 Ry
     one-center paw contrib.   =    -957.74063359 Ry

     total magnetization       =    32.00 Bohr mag/cell
     absolute magnetization    =    32.09 Bohr mag/cell

     convergence has been achieved in  26 iterations

     negative rho (up, down):  0.000E+00 3.417E-03

     Forces acting on atoms (cartesian axes, Ry/au):

     atom    1 type  1   force =     0.00000000   -0.00000000    0.00000000
     atom    2 type  1   force =     0.00000000    0.00000000    0.00000000
     atom    3 type  1   force =     0.00000000    0.00000000    0.00000000
     atom    4 type  1   force =     0.00000000    0.00000000    0.00000000
     atom    5 type  1   force =     0.00827890    0.00079635    0.00000000
     atom    6 type  1   force =    -0.00827890   -0.00079635    0.00000000
     atom    7 type  1   force =     0.00827890   -0.00079635    0.00000000
     atom    8 type  1   force =    -0.00827890    0.00079635   -0.00000000
     atom    9 type  2   force =     0.01520780   -0.03591185    0.00000000
     atom   10 type  2   force =    -0.01520780    0.03591185    0.00000000
     atom   11 type  2   force =     0.01520780    0.03591185    0.00000000
     atom   12 type  2   force =    -0.01520780   -0.03591185    0.00000000
     atom   13 type  3   force =     0.04127958    0.01534698   -0.00000000
     atom   14 type  3   force =    -0.04127958   -0.01534698    0.00000000
     atom   15 type  3   force =     0.04127958   -0.01534698    0.00000000
     atom   16 type  3   force =    -0.04127958    0.01534698    0.00000000
     atom   17 type  3   force =     0.01426504    0.01671327   -0.00000000
     atom   18 type  3   force =    -0.01426504   -0.01671327   -0.00000000
     atom   19 type  3   force =     0.01426504   -0.01671327   -0.00000000
     atom   20 type  3   force =    -0.01426504    0.01671327    0.00000000
     atom   21 type  3   force =    -0.03361629    0.00229157   -0.01888756
     atom   22 type  3   force =     0.03361629   -0.00229157    0.01888756
     atom   23 type  3   force =    -0.03361629   -0.00229157    0.01888756
     atom   24 type  3   force =     0.03361629    0.00229157   -0.01888756
     atom   25 type  3   force =     0.03361629   -0.00229157   -0.01888756
     atom   26 type  3   force =    -0.03361629    0.00229157    0.01888756
     atom   27 type  3   force =     0.03361629    0.00229157    0.01888756
     atom   28 type  3   force =    -0.03361629   -0.00229157   -0.01888756

     Total force =     0.167291     Total SCF correction =     0.000060


     Computing stress (Cartesian axis) and pressure


     negative rho (up, down):  0.000E+00 3.417E-03
          total   stress  (Ry/bohr**3)                   (kbar)     P=      -48.92
  -0.00044024   0.00000000   0.00000000          -64.76        0.00        0.00
   0.00000000  -0.00004432   0.00000000            0.00       -6.52        0.00
   0.00000000   0.00000000  -0.00051320            0.00        0.00      -75.49

     Energy error            =      9.3E-02
     Gradient error          =      4.1E-02
     Cell gradient error     =      5.1E-04


     number of scf cycles    =   3
     number of bfgs steps    =   2

     enthalpy old            =   -3488.5584249531 Ry
     enthalpy new            =   -3488.6516912230 Ry

     CASE: enthalpy_new < enthalpy_old

     new trust radius        =       0.1743092916 bohr
     new conv_thr            =       0.0000001000 Ry

     new unit-cell volume =   2075.11569 a.u.^3 (   307.50042 Ang^3 )
     density =      4.40155 g/cm^3

CELL_PARAMETERS (angstrom)
   4.838287219   0.000000000   0.000000000
   0.000000000  10.399359142   0.000000000
   0.000000000   0.000000000   6.111495403

ATOMIC_POSITIONS (angstrom)
Fe            0.0000000000       -0.0000000000        0.0000000000
Fe            2.4191436095        5.1996795711        0.0000000000
Fe           -0.0000000000        0.0000000000        3.0557477016
Fe            2.4191436095        5.1996795711        3.0557477016
Fe            0.0853322638        2.8909532040        4.5836215525
Fe            4.7529549552        7.5084059383        1.5278738508
Fe            2.5044758734        2.3087263672        1.5278738508
Fe            2.3338113457        8.0906327751        4.5836215525
Si            0.3685828904        4.2253660428        1.5278738508
Si            4.4697043286        6.1739930994        4.5836215525
Si            2.7877264999        0.9743135283        4.5836215525
Si            2.0505607191        9.4250456139        1.5278738508
O             1.1504209547        0.9186954033        4.5836215525
O             3.6878662643        9.4806637389        1.5278738508
O             3.5695645642        4.2809841678        1.5278738508
O             1.2687226548        6.1183749744        4.5836215525
O             1.3983607049        0.5657460893        1.5278738508
O             3.4399265141        9.8336130529        4.5836215525
O             3.8175043145        4.6339334818        4.5836215525
O             1.0207829046        5.7654256604        1.5278738508
O             1.0728826798        3.5234419665        2.8272790944
O             3.7654045393        6.8759171757        3.2842163089
O             3.4920262893        1.6762376046        3.2842163089
O             1.3462609297        8.7231215376        2.8272790944
O             3.7654045393        6.8759171757        5.8830267960
O             1.0728826798        3.5234419665        0.2284686073
O             1.3462609297        8.7231215376        0.2284686073
O             3.4920262893        1.6762376046        5.8830267960



     Writing output data file ./out/oliv.save/
     NEW-OLD atomic charge density approx. for the potential

     Check: negative core charge=   -0.000002

     negative rho (up, down):  0.000E+00 3.358E-03
     extrapolated charge  231.26931, renormalised to  240.00000
     Generating pointlists ...

     total cpu time spent up to now is     5665.9 secs

     Self-consistent Calculation

     iteration #  1     ecut=    60.00 Ry     beta= 0.30
     Davidson diagonalization with overlap
     c_bands:  4 eigenvalues not converged
     c_bands:  4 eigenvalues not converged
     c_bands:  2 eigenvalues not converged
     c_bands:  3 eigenvalues not converged
     c_bands:  4 eigenvalues not converged
     ethr =  1.00E-06,  avg # of iterations = 29.4

     negative rho (up, down):  0.000E+00 1.204E-04

     total cpu time spent up to now is     5974.7 secs

     total energy              =   -3464.24192225 Ry
     estimated scf accuracy    <      40.08430384 Ry

     total magnetization       =    11.53 Bohr mag/cell
     absolute magnetization    =    12.33 Bohr mag/cell

     iteration #  2     ecut=    60.00 Ry     beta= 0.30
     Davidson diagonalization with overlap
     ethr =  1.00E-02,  avg # of iterations =  7.5

     negative rho (up, down):  0.000E+00 5.196E-04

     total cpu time spent up to now is     6051.3 secs

     total energy              =   -3483.36656962 Ry
     estimated scf accuracy    <     134.65195505 Ry

     total magnetization       =    10.22 Bohr mag/cell
     absolute magnetization    =    14.20 Bohr mag/cell

     iteration #  3     ecut=    60.00 Ry     beta= 0.30
     Davidson diagonalization with overlap
     ethr =  1.00E-02,  avg # of iterations =  6.1

     negative rho (up, down):  0.000E+00 6.372E-04

     total cpu time spent up to now is     6108.2 secs

     total energy              =   -3487.72883946 Ry
     estimated scf accuracy    <      41.04925919 Ry

     total magnetization       =    19.54 Bohr mag/cell
     absolute magnetization    =    19.70 Bohr mag/cell

     iteration #  4     ecut=    60.00 Ry     beta= 0.30
     Davidson diagonalization with overlap
     ethr =  1.00E-02,  avg # of iterations =  2.0

     negative rho (up, down):  0.000E+00 1.289E-03

     total cpu time spent up to now is     6157.5 secs

     total energy              =   -3488.21769999 Ry
     estimated scf accuracy    <      10.95442392 Ry

     total magnetization       =    30.02 Bohr mag/cell
     absolute magnetization    =    30.17 Bohr mag/cell

     iteration #  5     ecut=    60.00 Ry     beta= 0.30
     Davidson diagonalization with overlap
     ethr =  4.56E-03,  avg # of iterations =  2.2

     negative rho (up, down):  0.000E+00 1.775E-03

     total cpu time spent up to now is     6205.5 secs

     total energy              =   -3488.18264661 Ry
     estimated scf accuracy    <       3.94341238 Ry

     total magnetization       =    30.50 Bohr mag/cell
     absolute magnetization    =    30.58 Bohr mag/cell

     iteration #  6     ecut=    60.00 Ry     beta= 0.30
     Davidson diagonalization with overlap
     ethr =  1.64E-03,  avg # of iterations =  5.4

     negative rho (up, down):  0.000E+00 2.037E-03

     total cpu time spent up to now is     6258.2 secs

     total energy              =   -3488.42544594 Ry
     estimated scf accuracy    <       1.61079301 Ry

     total magnetization       =    31.32 Bohr mag/cell
     absolute magnetization    =    31.41 Bohr mag/cell

     iteration #  7     ecut=    60.00 Ry     beta= 0.30
     Davidson diagonalization with overlap
     ethr =  6.71E-04,  avg # of iterations =  9.1

     negative rho (up, down):  0.000E+00 2.142E-03

     total cpu time spent up to now is     6336.8 secs

     total energy              =   -3488.62967387 Ry
     estimated scf accuracy    <       0.60080907 Ry

     total magnetization       =    31.01 Bohr mag/cell
     absolute magnetization    =    31.08 Bohr mag/cell

     iteration #  8     ecut=    60.00 Ry     beta= 0.30
     Davidson diagonalization with overlap
     ethr =  2.50E-04,  avg # of iterations =  5.1

     negative rho (up, down):  0.000E+00 2.186E-03

     total cpu time spent up to now is     6389.4 secs

     total energy              =   -3488.75215108 Ry
     estimated scf accuracy    <       0.46541976 Ry

     total magnetization       =    32.00 Bohr mag/cell
     absolute magnetization    =    32.08 Bohr mag/cell

     iteration #  9     ecut=    60.00 Ry     beta= 0.30
     Davidson diagonalization with overlap
     ethr =  1.94E-04,  avg # of iterations =  1.6

     negative rho (up, down):  0.000E+00 2.316E-03

     total cpu time spent up to now is     6436.2 secs

     total energy              =   -3488.75812133 Ry
     estimated scf accuracy    <       0.50333580 Ry

     total magnetization       =    32.01 Bohr mag/cell
     absolute magnetization    =    32.09 Bohr mag/cell

     iteration # 10     ecut=    60.00 Ry     beta= 0.30
     Davidson diagonalization with overlap
     ethr =  1.94E-04,  avg # of iterations =  1.1

     negative rho (up, down):  0.000E+00 3.329E-03

     total cpu time spent up to now is     6485.8 secs

     total energy              =   -3488.67601317 Ry
     estimated scf accuracy    <       0.46073025 Ry

     total magnetization       =    32.01 Bohr mag/cell
     absolute magnetization    =    32.10 Bohr mag/cell

     iteration # 11     ecut=    60.00 Ry     beta= 0.30
     Davidson diagonalization with overlap
     ethr =  1.92E-04,  avg # of iterations =  1.6

     negative rho (up, down):  0.000E+00 3.354E-03

     total cpu time spent up to now is     6531.9 secs

     total energy              =   -3488.67954190 Ry
     estimated scf accuracy    <       0.14349540 Ry

     total magnetization       =    32.00 Bohr mag/cell
     absolute magnetization    =    32.11 Bohr mag/cell

     iteration # 12     ecut=    60.00 Ry     beta= 0.30
     Davidson diagonalization with overlap
     c_bands:  1 eigenvalues not converged
     ethr =  5.98E-05,  avg # of iterations =  4.2

     negative rho (up, down):  0.000E+00 3.338E-03

     total cpu time spent up to now is     6587.9 secs

     total energy              =   -3488.68333069 Ry
     estimated scf accuracy    <       0.06074505 Ry

     total magnetization       =    32.00 Bohr mag/cell
     absolute magnetization    =    32.10 Bohr mag/cell

     iteration # 13     ecut=    60.00 Ry     beta= 0.30
     Davidson diagonalization with overlap
     ethr =  2.53E-05,  avg # of iterations =  5.8

     negative rho (up, down):  0.000E+00 3.320E-03

     total cpu time spent up to now is     6636.4 secs

     total energy              =   -3488.68230989 Ry
     estimated scf accuracy    <       0.03660196 Ry

     total magnetization       =    32.00 Bohr mag/cell
     absolute magnetization    =    32.10 Bohr mag/cell

     iteration # 14     ecut=    60.00 Ry     beta= 0.30
     Davidson diagonalization with overlap
     ethr =  1.53E-05,  avg # of iterations =  2.4

     negative rho (up, down):  0.000E+00 3.334E-03

     total cpu time spent up to now is     6680.6 secs

     total energy              =   -3488.67801383 Ry
     estimated scf accuracy    <       0.01623948 Ry

     total magnetization       =    32.00 Bohr mag/cell
     absolute magnetization    =    32.10 Bohr mag/cell

     iteration # 15     ecut=    60.00 Ry     beta= 0.30
     Davidson diagonalization with overlap
     c_bands:  1 eigenvalues not converged
     ethr =  6.77E-06,  avg # of iterations = 10.2

     negative rho (up, down):  0.000E+00 3.324E-03

     total cpu time spent up to now is     6737.6 secs

     total energy              =   -3488.68288165 Ry
     estimated scf accuracy    <       0.00069374 Ry

     total magnetization       =    32.00 Bohr mag/cell
     absolute magnetization    =    32.09 Bohr mag/cell

     iteration # 16     ecut=    60.00 Ry     beta= 0.30
     Davidson diagonalization with overlap
     ethr =  2.89E-07,  avg # of iterations =  9.1

     negative rho (up, down):  0.000E+00 3.307E-03

     total cpu time spent up to now is     6818.2 secs

     total energy              =   -3488.68351215 Ry
     estimated scf accuracy    <       0.00050792 Ry

     total magnetization       =    32.00 Bohr mag/cell
     absolute magnetization    =    32.10 Bohr mag/cell

     iteration # 17     ecut=    60.00 Ry     beta= 0.30
     Davidson diagonalization with overlap
     ethr =  2.12E-07,  avg # of iterations =  1.9

     negative rho (up, down):  0.000E+00 3.296E-03

     total cpu time spent up to now is     6862.9 secs

     total energy              =   -3488.68356806 Ry
     estimated scf accuracy    <       0.00006119 Ry

     total magnetization       =    32.00 Bohr mag/cell
     absolute magnetization    =    32.09 Bohr mag/cell

     iteration # 18     ecut=    60.00 Ry     beta= 0.30
     Davidson diagonalization with overlap
     ethr =  2.55E-08,  avg # of iterations =  4.4

     negative rho (up, down):  0.000E+00 3.295E-03

     total cpu time spent up to now is     6924.7 secs

     total energy              =   -3488.68359266 Ry
     estimated scf accuracy    <       0.00004289 Ry

     total magnetization       =    32.00 Bohr mag/cell
     absolute magnetization    =    32.10 Bohr mag/cell

     iteration # 19     ecut=    60.00 Ry     beta= 0.30
     Davidson diagonalization with overlap
     ethr =  1.79E-08,  avg # of iterations =  1.6

     negative rho (up, down):  0.000E+00 3.291E-03

     total cpu time spent up to now is     6967.6 secs

     total energy              =   -3488.68359779 Ry
     estimated scf accuracy    <       0.00002212 Ry

     total magnetization       =    32.00 Bohr mag/cell
     absolute magnetization    =    32.10 Bohr mag/cell

     iteration # 20     ecut=    60.00 Ry     beta= 0.30
     Davidson diagonalization with overlap
     ethr =  9.22E-09,  avg # of iterations =  4.1

     negative rho (up, down):  0.000E+00 3.293E-03

     total cpu time spent up to now is     7037.4 secs

     total energy              =   -3488.68360885 Ry
     estimated scf accuracy    <       0.00002265 Ry

     total magnetization       =    32.00 Bohr mag/cell
     absolute magnetization    =    32.10 Bohr mag/cell

     iteration # 21     ecut=    60.00 Ry     beta= 0.30
     Davidson diagonalization with overlap
     ethr =  9.22E-09,  avg # of iterations =  1.0

     negative rho (up, down):  0.000E+00 3.291E-03

     total cpu time spent up to now is     7078.8 secs

     total energy              =   -3488.68361006 Ry
     estimated scf accuracy    <       0.00001029 Ry

     total magnetization       =    32.00 Bohr mag/cell
     absolute magnetization    =    32.10 Bohr mag/cell

     iteration # 22     ecut=    60.00 Ry     beta= 0.30
     Davidson diagonalization with overlap
     ethr =  4.29E-09,  avg # of iterations =  4.4

     negative rho (up, down):  0.000E+00 3.291E-03

     total cpu time spent up to now is     7160.6 secs

     total energy              =   -3488.68361244 Ry
     estimated scf accuracy    <       0.00001053 Ry

     total magnetization       =    32.00 Bohr mag/cell
     absolute magnetization    =    32.10 Bohr mag/cell

     iteration # 23     ecut=    60.00 Ry     beta= 0.30
     Davidson diagonalization with overlap
     ethr =  4.29E-09,  avg # of iterations =  2.0

     negative rho (up, down):  0.000E+00 3.291E-03

     total cpu time spent up to now is     7205.0 secs

     total energy              =   -3488.68361470 Ry
     estimated scf accuracy    <       0.00000160 Ry

     total magnetization       =    32.00 Bohr mag/cell
     absolute magnetization    =    32.10 Bohr mag/cell

     iteration # 24     ecut=    60.00 Ry     beta= 0.30
     Davidson diagonalization with overlap
     ethr =  6.68E-10,  avg # of iterations =  5.6

     negative rho (up, down):  0.000E+00 3.291E-03

     total cpu time spent up to now is     7271.9 secs

     total energy              =   -3488.68361566 Ry
     estimated scf accuracy    <       0.00000144 Ry

     total magnetization       =    32.00 Bohr mag/cell
     absolute magnetization    =    32.10 Bohr mag/cell

     iteration # 25     ecut=    60.00 Ry     beta= 0.30
     Davidson diagonalization with overlap
     ethr =  6.00E-10,  avg # of iterations =  2.0

     negative rho (up, down):  0.000E+00 3.290E-03

     total cpu time spent up to now is     7318.6 secs

     total energy              =   -3488.68361610 Ry
     estimated scf accuracy    <       0.00000042 Ry

     total magnetization       =    32.00 Bohr mag/cell
     absolute magnetization    =    32.10 Bohr mag/cell

     iteration # 26     ecut=    60.00 Ry     beta= 0.30
     Davidson diagonalization with overlap
     ethr =  1.73E-10,  avg # of iterations =  5.9

     negative rho (up, down):  0.000E+00 3.290E-03

     total cpu time spent up to now is     7392.4 secs

     total energy              =   -3488.68361646 Ry
     estimated scf accuracy    <       0.00000061 Ry

     total magnetization       =    32.00 Bohr mag/cell
     absolute magnetization    =    32.09 Bohr mag/cell

     iteration # 27     ecut=    60.00 Ry     beta= 0.30
     Davidson diagonalization with overlap
     ethr =  1.73E-10,  avg # of iterations =  5.5

     negative rho (up, down):  0.000E+00 3.290E-03

     total cpu time spent up to now is     7465.0 secs

     total energy              =   -3488.68361689 Ry
     estimated scf accuracy    <       0.00000038 Ry

     total magnetization       =    32.00 Bohr mag/cell
     absolute magnetization    =    32.09 Bohr mag/cell

     iteration # 28     ecut=    60.00 Ry     beta= 0.30
     Davidson diagonalization with overlap
     ethr =  1.60E-10,  avg # of iterations =  2.0

     negative rho (up, down):  0.000E+00 3.291E-03

     total cpu time spent up to now is     7509.5 secs

     total energy              =   -3488.68361694 Ry
     estimated scf accuracy    <       0.00000024 Ry

     total magnetization       =    32.00 Bohr mag/cell
     absolute magnetization    =    32.09 Bohr mag/cell

     iteration # 29     ecut=    60.00 Ry     beta= 0.30
     Davidson diagonalization with overlap
     ethr =  1.02E-10,  avg # of iterations =  2.8

     negative rho (up, down):  0.000E+00 3.291E-03

     total cpu time spent up to now is     7562.6 secs

     total energy              =   -3488.68361707 Ry
     estimated scf accuracy    <       0.00000016 Ry

     total magnetization       =    32.00 Bohr mag/cell
     absolute magnetization    =    32.09 Bohr mag/cell

     iteration # 30     ecut=    60.00 Ry     beta= 0.30
     Davidson diagonalization with overlap
     ethr =  6.75E-11,  avg # of iterations =  3.1

     negative rho (up, down):  0.000E+00 3.291E-03

     Magnetic moment per site:
     atom:    1    charge:   13.3657    magn:    3.3492    constr:    0.0000
     atom:    2    charge:   13.3657    magn:    3.3492    constr:    0.0000
     atom:    3    charge:   13.3657    magn:    3.3492    constr:    0.0000
     atom:    4    charge:   13.3657    magn:    3.3492    constr:    0.0000
     atom:    5    charge:   13.3335    magn:    3.3869    constr:    0.0000
     atom:    6    charge:   13.3335    magn:    3.3869    constr:    0.0000
     atom:    7    charge:   13.3335    magn:    3.3869    constr:    0.0000
     atom:    8    charge:   13.3335    magn:    3.3869    constr:    0.0000
     atom:    9    charge:    0.3931    magn:    0.0041    constr:    0.0000
     atom:   10    charge:    0.3931    magn:    0.0041    constr:    0.0000
     atom:   11    charge:    0.3931    magn:    0.0041    constr:    0.0000
     atom:   12    charge:    0.3931    magn:    0.0041    constr:    0.0000
     atom:   13    charge:    4.0314    magn:    0.1055    constr:    0.0000
     atom:   14    charge:    4.0314    magn:    0.1055    constr:    0.0000
     atom:   15    charge:    4.0314    magn:    0.1055    constr:    0.0000
     atom:   16    charge:    4.0314    magn:    0.1055    constr:    0.0000
     atom:   17    charge:    4.0250    magn:    0.1249    constr:    0.0000
     atom:   18    charge:    4.0250    magn:    0.1249    constr:    0.0000
     atom:   19    charge:    4.0250    magn:    0.1249    constr:    0.0000
     atom:   20    charge:    4.0250    magn:    0.1249    constr:    0.0000
     atom:   21    charge:    4.0281    magn:    0.1172    constr:    0.0000
     atom:   22    charge:    4.0281    magn:    0.1172    constr:    0.0000
     atom:   23    charge:    4.0281    magn:    0.1172    constr:    0.0000
     atom:   24    charge:    4.0281    magn:    0.1172    constr:    0.0000
     atom:   25    charge:    4.0281    magn:    0.1172    constr:    0.0000
     atom:   26    charge:    4.0281    magn:    0.1172    constr:    0.0000
     atom:   27    charge:    4.0281    magn:    0.1172    constr:    0.0000
     atom:   28    charge:    4.0281    magn:    0.1172    constr:    0.0000

     total cpu time spent up to now is     7608.2 secs

     End of self-consistent calculation

 ------ SPIN UP ------------


          k = 0.0000 0.0000 0.0000 ( 15339 PWs)   bands (ev):

   -79.1499 -79.1499 -79.1499 -79.1498 -79.0210 -79.0210 -79.0194 -79.0193
   -45.7814 -45.7814 -45.7802 -45.7802 -45.5011 -45.5011 -45.4942 -45.4942
   -45.2076 -45.2076 -45.2074 -45.2074 -44.9864 -44.9862 -44.9843 -44.9842
   -44.7688 -44.7688 -44.7445 -44.7445 -44.6044 -44.6044 -44.6036 -44.6036
   -11.3506 -11.1412 -10.8727 -10.7455  -9.6724  -9.6346  -9.6233  -9.5912
    -9.5707  -9.5380  -9.4502  -9.4054  -9.4051  -9.3486  -9.3379  -9.3197
     1.0740   1.1343   1.6451   1.6764   1.7201   1.7694   2.3880   2.4257
     2.4416   2.8652   2.9378   3.0757   3.1686   3.7616   3.8059   3.8474
     4.0666   4.1810   4.2041   4.2213   4.2931   4.3222   4.4869   4.5021
     4.5030   4.5381   4.5622   4.6716   4.7073   4.7458   4.7579   4.8474
     4.9433   4.9507   5.0750   5.1140   5.2416   5.3015   5.3866   5.3874
     5.4837   5.7614   5.9545   6.0356   6.1114   6.2680   6.3139   6.3785
     6.9096   7.1422   7.1559   7.2021   7.2380   7.2532   7.3214   7.4333
     7.4975   7.5012   7.5075   7.5543   7.6028   7.6721   7.9383   7.9420
     7.9447   8.0155   8.1393   8.1417   8.1856   8.2241   8.2531   8.4174
     8.4326   8.4340   8.5110   8.5247   8.8800   8.9100   9.0052   9.2007
     9.2288   9.2328   9.2461   9.4394   9.4763   9.5471   9.5758   9.8306
    11.5499  13.6695  14.0217  15.3019  16.1015  16.2228  16.3962  16.5382

          k = 0.0000 0.0000-0.3890 ( 15392 PWs)   bands (ev):

   -79.1499 -79.1499 -79.1499 -79.1499 -79.0202 -79.0202 -79.0202 -79.0202
   -45.7809 -45.7809 -45.7809 -45.7809 -45.4977 -45.4977 -45.4977 -45.4977
   -45.2075 -45.2075 -45.2075 -45.2075 -44.9853 -44.9853 -44.9852 -44.9852
   -44.7567 -44.7567 -44.7567 -44.7567 -44.6040 -44.6040 -44.6040 -44.6040
   -11.0718 -11.0718 -10.9828 -10.9828  -9.6355  -9.6355  -9.6269  -9.6269
    -9.6233  -9.6233  -9.4502  -9.4502  -9.3464  -9.3464  -9.2897  -9.2897
     1.4203   1.4203   1.4613   1.4613   2.1440   2.1440   2.1701   2.1701
     2.8048   2.8048   3.2697   3.2697   3.5046   3.5046   3.7975   3.7975
     3.8418   3.8418   4.0641   4.0641   4.2682   4.2682   4.4167   4.4167
     4.4712   4.4712   4.5441   4.5441   4.7507   4.7507   4.7919   4.7919
     4.9565   4.9565   5.1384   5.1384   5.1588   5.1588   5.5207   5.5207
     5.6793   5.6793   5.7475   5.7475   5.9112   5.9112   5.9755   5.9755
     7.1974   7.1974   7.2023   7.2023   7.3041   7.3041   7.3497   7.3497
     7.5896   7.5896   7.6215   7.6215   7.7159   7.7159   7.8594   7.8594
     8.1365   8.1365   8.1418   8.1418   8.2439   8.2439   8.3238   8.3238
     8.4946   8.4946   8.6215   8.6215   8.8794   8.8794   8.9034   8.9034
     9.0938   9.0938   9.1642   9.1642   9.3835   9.3835   9.6367   9.6367
    13.4290  13.4290  14.6084  14.6084  15.3338  15.3338  16.7979  16.7979

          k =-0.4913 0.0000 0.0000 ( 15374 PWs)   bands (ev):

   -79.1499 -79.1499 -79.1499 -79.1499 -79.0211 -79.0211 -79.0193 -79.0193
   -45.7808 -45.7808 -45.7808 -45.7808 -45.5012 -45.5012 -45.4942 -45.4942
   -45.2075 -45.2075 -45.2075 -45.2075 -44.9863 -44.9863 -44.9842 -44.9842
   -44.7688 -44.7688 -44.7445 -44.7445 -44.6041 -44.6041 -44.6040 -44.6040
   -10.9511 -10.9511 -10.7106 -10.7106 -10.0166 -10.0166  -9.7884  -9.7884
    -9.5159  -9.5159  -9.4369  -9.4369  -9.4102  -9.4102  -9.2969  -9.2969
     1.2036   1.2036   1.3410   1.3410   2.7401   2.7401   2.8193   2.8193
     3.0387   3.0387   3.0672   3.0672   3.3186   3.3186   3.3677   3.3677
     3.6284   3.6284   3.7159   3.7159   3.7970   3.7970   4.2941   4.2941
     4.4695   4.4695   4.5743   4.5743   4.8920   4.8920   4.9908   4.9908
     5.0133   5.0133   5.1084   5.1084   5.3813   5.3813   5.6073   5.6073
     5.6206   5.6206   5.9812   5.9812   6.1082   6.1082   6.6646   6.6646
     7.1203   7.1203   7.1833   7.1833   7.2907   7.2907   7.3694   7.3694
     7.4287   7.4287   7.4427   7.4427   7.6604   7.6604   7.8641   7.8641
     7.9285   7.9285   8.1528   8.1528   8.1962   8.1962   8.3661   8.3661
     8.6973   8.6973   8.7980   8.7980   8.8576   8.8576   8.9083   8.9083
     9.1148   9.1148   9.2573   9.2573   9.4884   9.4884   9.5098   9.5098
    14.0800  14.0800  15.0166  15.0166  15.4876  15.4877  15.5524  15.5524

          k =-0.4913 0.0000-0.3890 ( 15436 PWs)   bands (ev):

   -79.1499 -79.1499 -79.1499 -79.1499 -79.0202 -79.0202 -79.0202 -79.0202
   -45.7809 -45.7809 -45.7809 -45.7809 -45.4977 -45.4977 -45.4977 -45.4977
   -45.2076 -45.2076 -45.2075 -45.2075 -44.9853 -44.9853 -44.9852 -44.9852
   -44.7567 -44.7567 -44.7567 -44.7567 -44.6040 -44.6040 -44.6040 -44.6040
   -10.8335 -10.8335 -10.7921 -10.7921  -9.9260  -9.9260  -9.9076  -9.9076
    -9.5171  -9.5171  -9.4950  -9.4950  -9.3520  -9.3520  -9.3301  -9.3301
     1.3785   1.3785   1.3832   1.3832   2.7684   2.7684   2.9705   2.9705
     3.1746   3.1746   3.2241   3.2241   3.2745   3.2745   3.4687   3.4687
     3.5524   3.5524   3.6893   3.6893   3.7873   3.7873   3.8682   3.8682
     4.3039   4.3039   4.5969   4.5969   5.0565   5.0565   5.1233   5.1233
     5.1905   5.1905   5.3202   5.3202   5.3765   5.3765   5.3980   5.3980
     5.6029   5.6029   5.6796   5.6796   5.9908   5.9908   6.1416   6.1416
     7.1443   7.1443   7.2535   7.2535   7.3752   7.3752   7.3822   7.3822
     7.4360   7.4360   7.5934   7.5934   7.8036   7.8036   7.8302   7.8302
     7.8908   7.8908   8.0418   8.0418   8.1335   8.1335   8.2456   8.2456
     8.5428   8.5428   8.5751   8.5751   8.5910   8.5910   8.9811   8.9811
     9.2190   9.2190   9.2478   9.2478   9.3889   9.3889   9.7045   9.7045
    15.0754  15.0754  15.2676  15.2676  15.7820  15.7820  16.0356  16.1110

 ------ SPIN DOWN ----------


          k = 0.0000 0.0000 0.0000 ( 15339 PWs)   bands (ev):

   -74.9643 -74.9643 -74.9642 -74.9641 -74.9053 -74.9051 -74.9034 -74.9033
   -41.2852 -41.2851 -41.2832 -41.2832 -41.1762 -41.1761 -41.1664 -41.1664
   -41.1380 -41.1379 -41.1375 -41.1373 -41.0403 -41.0399 -41.0372 -41.0371
   -40.9915 -40.9915 -40.9621 -40.9620 -40.9074 -40.9074 -40.9064 -40.9064
   -11.1335 -10.9264 -10.6596 -10.5333  -9.4514  -9.4102  -9.3906  -9.3592
    -9.3178  -9.2952  -9.2113  -9.1568  -9.1534  -9.0851  -9.0781  -9.0754
     1.3508   1.3936   1.8849   1.9705   1.9874   2.0851   2.7409   2.7755
     2.8654   3.2681   3.3371   3.3581   3.5751   4.1219   4.1412   4.1643
     4.5633   4.6688   4.7796   4.8624   4.8759   4.9759   5.0336   5.0355
     5.0555   5.1880   5.2036   5.3244   5.3884   5.4121   5.5017   5.6142
     5.6307   5.6403   5.7687   5.7725   5.8111   5.8504   5.9621   6.0066
     6.2851   6.3971   6.4451   6.5011   6.7010   6.7341   6.7809   6.9019
    10.0954  10.1576  10.3618  10.3671  10.4202  10.5154  10.5316  10.5693
    10.6063  10.7129  10.7922  10.9903  11.0012  11.0166  11.0305  11.0547
    11.0724  11.2055  11.2286  11.2975  11.3337  11.3453  11.4850  11.4927
    11.9917  12.0313  12.0772  12.1249  12.1986  12.3252  12.3723  12.4422
    12.4542  12.5313  12.5447  12.5577  12.5974  12.7290  12.7719  12.9118
    12.9683  14.2558  14.5232  15.7795  16.6062  16.7736  16.9056  16.9072

          k = 0.0000 0.0000-0.3890 ( 15392 PWs)   bands (ev):

   -74.9643 -74.9643 -74.9643 -74.9643 -74.9044 -74.9044 -74.9044 -74.9044
   -41.2843 -41.2843 -41.2842 -41.2842 -41.1712 -41.1712 -41.1711 -41.1711
   -41.1377 -41.1377 -41.1376 -41.1376 -41.0387 -41.0387 -41.0385 -41.0385
   -40.9770 -40.9770 -40.9770 -40.9770 -40.9069 -40.9069 -40.9069 -40.9069
   -10.8562 -10.8562 -10.7692 -10.7692  -9.4003  -9.4003  -9.3963  -9.3963
    -9.3862  -9.3862  -9.2076  -9.2076  -9.0888  -9.0888  -9.0370  -9.0370
     1.6752   1.6752   1.7121   1.7121   2.5086   2.5086   2.5170   2.5170
     3.1717   3.1717   3.6138   3.6138   3.8819   3.8819   4.1499   4.1499
     4.3909   4.3909   4.6244   4.6244   4.8343   4.8343   4.9070   4.9070
     5.0028   5.0028   5.1903   5.1903   5.4190   5.4190   5.4860   5.4860
     5.7408   5.7408   5.7960   5.7960   5.8921   5.8921   6.0259   6.0259
     6.1314   6.1314   6.2344   6.2344   6.6350   6.6350   6.7361   6.7361
    10.4792  10.4792  10.4965  10.4965  10.5227  10.5227  10.5644  10.5644
    10.7674  10.7674  10.8292  10.8292  10.9904  10.9904  11.0028  11.0028
    11.1148  11.1148  11.1632  11.1632  11.2783  11.2783  11.4112  11.4112
    11.9041  11.9041  12.0384  12.0384  12.3641  12.3641  12.4135  12.4135
    12.5037  12.5037  12.5244  12.5244  12.7506  12.7506  12.8195  12.8195
    14.0083  14.0083  15.1123  15.1123  15.8250  15.8250  17.1033  17.1033

          k =-0.4913 0.0000 0.0000 ( 15374 PWs)   bands (ev):

   -74.9643 -74.9643 -74.9642 -74.9642 -74.9053 -74.9053 -74.9034 -74.9034
   -41.2842 -41.2842 -41.2842 -41.2842 -41.1763 -41.1763 -41.1664 -41.1664
   -41.1378 -41.1378 -41.1375 -41.1375 -41.0402 -41.0402 -41.0371 -41.0371
   -40.9915 -40.9915 -40.9621 -40.9621 -40.9070 -40.9070 -40.9069 -40.9069
   -10.7376 -10.7376 -10.4899 -10.4899  -9.7908  -9.7908  -9.5651  -9.5651
    -9.2577  -9.2577  -9.1906  -9.1906  -9.1692  -9.1692  -9.0438  -9.0438
     1.5018   1.5018   1.5736   1.5736   3.0697   3.0697   3.1340   3.1340
     3.4412   3.4412   3.4962   3.4962   3.7357   3.7357   3.8339   3.8339
     4.1025   4.1025   4.1305   4.1305   4.2224   4.2224   4.6419   4.6419
     5.0704   5.0704   5.1783   5.1783   5.6009   5.6009   5.7070   5.7070
     5.8886   5.8886   5.9546   5.9546   6.0758   6.0758   6.1608   6.1608
     6.2624   6.2624   6.6095   6.6095   6.6722   6.6722   7.0923   7.0923
    10.1183  10.1183  10.3071  10.3071  10.4766  10.4766  10.6106  10.6106
    10.7108  10.7108  10.8380  10.8380  11.0752  11.0752  11.1141  11.1141
    11.1519  11.1519  11.2728  11.2728  11.3331  11.3331  11.5167  11.5167
    12.1206  12.1206  12.1211  12.1211  12.1582  12.1582  12.2770  12.2770
    12.4361  12.4361  12.5524  12.5524  12.7611  12.7611  12.7920  12.7920
    14.5189  14.5189  15.3609  15.3609  16.0199  16.0200  16.1288  16.1288

          k =-0.4913 0.0000-0.3890 ( 15436 PWs)   bands (ev):

   -74.9644 -74.9644 -74.9643 -74.9643 -74.9044 -74.9044 -74.9044 -74.9044
   -41.2843 -41.2843 -41.2842 -41.2842 -41.1713 -41.1713 -41.1711 -41.1711
   -41.1378 -41.1378 -41.1374 -41.1374 -41.0387 -41.0387 -41.0386 -41.0386
   -40.9771 -40.9771 -40.9770 -40.9770 -40.9069 -40.9069 -40.9069 -40.9069
   -10.6170 -10.6170 -10.5756 -10.5756  -9.6995  -9.6995  -9.6835  -9.6835
    -9.2660  -9.2660  -9.2499  -9.2499  -9.1062  -9.1062  -9.0743  -9.0743
     1.6409   1.6409   1.6772   1.6772   3.1647   3.1647   3.4023   3.4023
     3.5494   3.5494   3.6383   3.6383   3.6716   3.6716   3.8260   3.8260
     3.9874   3.9874   4.0733   4.0733   4.3163   4.3163   4.3656   4.3656
     4.7357   4.7357   5.0687   5.0687   5.6323   5.6323   5.6410   5.6410
     5.8391   5.8391   5.9699   5.9699   6.2083   6.2083   6.2682   6.2682
     6.3224   6.3224   6.4347   6.4347   6.5320   6.5320   6.7389   6.7389
    10.3982  10.3982  10.4085  10.4085  10.5532  10.5532  10.5548  10.5548
    10.8607  10.8607  10.8823  10.8823  11.0197  11.0197  11.0266  11.0266
    11.1013  11.1013  11.1764  11.1764  11.2836  11.2836  11.3673  11.3673
    11.8816  11.8816  11.9041  11.9041  12.1361  12.1361  12.2377  12.2377
    12.4494  12.4494  12.5215  12.5215  12.6570  12.6570  12.9510  12.9510
    15.4807  15.4807  15.6984  15.6984  16.3700  16.3703  16.5892  16.5896

     the Fermi energy is    10.6605 ev

!    total energy              =   -3488.68361710 Ry

     total all-electron energy =    -25093.989585 Ry
     estimated scf accuracy    <       0.00000003 Ry
     smearing contrib. (-TS)   =      -0.01031929 Ry
     internal energy E=F+TS    =   -3488.67329780 Ry

     The total energy is F=E-TS. E is the sum of the following terms:
     one-electron contribution =   -1484.46131550 Ry
     hartree contribution      =     870.26445580 Ry
     xc contribution           =    -368.62365283 Ry
     ewald contribution        =   -1548.09227544 Ry
     one-center paw contrib.   =    -957.76050983 Ry

     total magnetization       =    32.00 Bohr mag/cell
     absolute magnetization    =    32.09 Bohr mag/cell

     convergence has been achieved in  30 iterations

     negative rho (up, down):  0.000E+00 3.291E-03

     Forces acting on atoms (cartesian axes, Ry/au):

     atom    1 type  1   force =     0.00000000    0.00000000    0.00000000
     atom    2 type  1   force =     0.00000000    0.00000000   -0.00000000
     atom    3 type  1   force =     0.00000000    0.00000000    0.00000000
     atom    4 type  1   force =     0.00000000   -0.00000000    0.00000000
     atom    5 type  1   force =     0.00922384    0.00043977    0.00000000
     atom    6 type  1   force =    -0.00922384   -0.00043977    0.00000000
     atom    7 type  1   force =     0.00922384   -0.00043977    0.00000000
     atom    8 type  1   force =    -0.00922384    0.00043977    0.00000000
     atom    9 type  2   force =    -0.01759487    0.01997762    0.00000000
     atom   10 type  2   force =     0.01759487   -0.01997762    0.00000000
     atom   11 type  2   force =    -0.01759487   -0.01997762    0.00000000
     atom   12 type  2   force =     0.01759487    0.01997762    0.00000000
     atom   13 type  3   force =     0.00547960    0.01475962    0.00000000
     atom   14 type  3   force =    -0.00547960   -0.01475962    0.00000000
     atom   15 type  3   force =     0.00547960   -0.01475962    0.00000000
     atom   16 type  3   force =    -0.00547960    0.01475962    0.00000000
     atom   17 type  3   force =     0.00788506    0.00010120    0.00000000
     atom   18 type  3   force =    -0.00788506   -0.00010120    0.00000000
     atom   19 type  3   force =     0.00788506   -0.00010120    0.00000000
     atom   20 type  3   force =    -0.00788506    0.00010120    0.00000000
     atom   21 type  3   force =    -0.00263935   -0.02005669    0.02278746
     atom   22 type  3   force =     0.00263935    0.02005669   -0.02278746
     atom   23 type  3   force =    -0.00263935    0.02005669   -0.02278746
     atom   24 type  3   force =     0.00263935   -0.02005669    0.02278746
     atom   25 type  3   force =     0.00263935    0.02005669    0.02278746
     atom   26 type  3   force =    -0.00263935   -0.02005669   -0.02278746
     atom   27 type  3   force =     0.00263935   -0.02005669   -0.02278746
     atom   28 type  3   force =    -0.00263935    0.02005669    0.02278746

     Total force =     0.108831     Total SCF correction =     0.000246


     Computing stress (Cartesian axis) and pressure


     negative rho (up, down):  0.000E+00 3.291E-03
          total   stress  (Ry/bohr**3)                   (kbar)     P=       23.19
   0.00015789   0.00000000   0.00000000           23.23        0.00        0.00
   0.00000000   0.00015587   0.00000000            0.00       22.93        0.00
   0.00000000   0.00000000   0.00015914            0.00        0.00       23.41

     Energy error            =      3.2E-02
     Gradient error          =      2.3E-02
     Cell gradient error     =      1.6E-04


     number of scf cycles    =   4
     number of bfgs steps    =   3

     enthalpy old            =   -3488.6516912230 Ry
     enthalpy new            =   -3488.6836170972 Ry

     CASE: enthalpy_new < enthalpy_old

     new trust radius        =       0.0232283756 bohr
     new conv_thr            =       0.0000001000 Ry

     new unit-cell volume =   2089.15569 a.u.^3 (   309.58093 Ang^3 )
     density =      4.37197 g/cm^3

CELL_PARAMETERS (angstrom)
   4.850622792   0.000000000   0.000000000
   0.000000000  10.425241122   0.000000000
   0.000000000   0.000000000   6.121961499

ATOMIC_POSITIONS (angstrom)
Fe            0.0000000000       -0.0000000000        0.0000000000
Fe            2.4253113962        5.2126205611       -0.0000000000
Fe           -0.0000000000        0.0000000000        3.0609807496
Fe            2.4253113962        5.2126205611        3.0609807496
Fe            0.0896647715        2.8982953115        4.5914711243
Fe            4.7609580208        7.5269458106        1.5304903748
Fe            2.5149761677        2.3143252495        1.5304903748
Fe            2.3356466247        8.1109158726        4.5914711243
Si            0.3660471960        4.2430639720        1.5304903748
Si            4.4845755963        6.1821771501        4.5914711243
Si            2.7913585922        0.9695565890        4.5914711243
Si            2.0592642001        9.4556845331        1.5304903748
O             1.1552932056        0.9277264852        4.5914711243
O             3.6953295868        9.4975146370        1.5304903748
O             3.5806046017        4.2848940759        1.5304903748
O             1.2700181906        6.1403470462        4.5914711243
O             1.4059192815        0.5663812287        1.5304903748
O             3.4447035108        9.8588598934        4.5914711243
O             3.8312306777        4.6462393323        4.5914711243
O             1.0193921147        5.7790017898        1.5304903748
O             1.0728682173        3.5244974698        2.8398678929
O             3.7777545750        6.9007436524        3.2820936062
O             3.4981796134        1.6881230913        3.2820936062
O             1.3524431789        8.7371180308        2.8398678929
O             3.7777545750        6.9007436524        5.9008486424
O             1.0728682173        3.5244974698        0.2211128567
O             1.3524431789        8.7371180308        0.2211128567
O             3.4981796134        1.6881230913        5.9008486424



     Writing output data file ./out/oliv.save/
     NEW-OLD atomic charge density approx. for the potential

     Check: negative core charge=   -0.000002

     negative rho (up, down):  0.000E+00 3.251E-03
     extrapolated charge  241.61286, renormalised to  240.00000
     Generating pointlists ...

     total cpu time spent up to now is     7656.5 secs

     Self-consistent Calculation

     iteration #  1     ecut=    60.00 Ry     beta= 0.30
     Davidson diagonalization with overlap
     ethr =  1.00E-06,  avg # of iterations = 12.5

     negative rho (up, down):  0.000E+00 3.437E-03

     total cpu time spent up to now is     7862.2 secs

     total energy              =   -3488.46294549 Ry
     estimated scf accuracy    <       0.28956559 Ry

     total magnetization       =    32.30 Bohr mag/cell
     absolute magnetization    =    32.41 Bohr mag/cell

     iteration #  2     ecut=    60.00 Ry     beta= 0.30
     Davidson diagonalization with overlap
     ethr =  1.21E-04,  avg # of iterations =  4.4

     negative rho (up, down):  0.000E+00 3.403E-03

     total cpu time spent up to now is     7931.1 secs

     total energy              =   -3488.52173532 Ry
     estimated scf accuracy    <       4.36651372 Ry

     total magnetization       =    32.00 Bohr mag/cell
     absolute magnetization    =    32.10 Bohr mag/cell

     iteration #  3     ecut=    60.00 Ry     beta= 0.30
     Davidson diagonalization with overlap
     ethr =  1.21E-04,  avg # of iterations =  2.0

     negative rho (up, down):  0.000E+00 3.325E-03

     total cpu time spent up to now is     7973.6 secs

     total energy              =   -3488.66038687 Ry
     estimated scf accuracy    <       1.13102978 Ry

     total magnetization       =    32.00 Bohr mag/cell
     absolute magnetization    =    32.07 Bohr mag/cell

     iteration #  4     ecut=    60.00 Ry     beta= 0.30
     Davidson diagonalization with overlap
     ethr =  1.21E-04,  avg # of iterations =  1.5

     negative rho (up, down):  0.000E+00 3.299E-03

     total cpu time spent up to now is     8013.4 secs

     total energy              =   -3488.69281628 Ry
     estimated scf accuracy    <       0.08331355 Ry

     total magnetization       =    32.00 Bohr mag/cell
     absolute magnetization    =    32.08 Bohr mag/cell

     iteration #  5     ecut=    60.00 Ry     beta= 0.30
     Davidson diagonalization with overlap
     ethr =  3.47E-05,  avg # of iterations =  2.0

     negative rho (up, down):  0.000E+00 3.285E-03

     total cpu time spent up to now is     8057.1 secs

     total energy              =   -3488.69253467 Ry
     estimated scf accuracy    <       0.03835584 Ry

     total magnetization       =    32.00 Bohr mag/cell
     absolute magnetization    =    32.08 Bohr mag/cell

     iteration #  6     ecut=    60.00 Ry     beta= 0.30
     Davidson diagonalization with overlap
     ethr =  1.60E-05,  avg # of iterations =  1.9

     negative rho (up, down):  0.000E+00 3.262E-03

     total cpu time spent up to now is     8099.5 secs

     total energy              =   -3488.68859462 Ry
     estimated scf accuracy    <       0.02006013 Ry

     total magnetization       =    32.00 Bohr mag/cell
     absolute magnetization    =    32.08 Bohr mag/cell

     iteration #  7     ecut=    60.00 Ry     beta= 0.30
     Davidson diagonalization with overlap
     ethr =  8.36E-06,  avg # of iterations =  3.0

     negative rho (up, down):  0.000E+00 3.246E-03

     total cpu time spent up to now is     8145.0 secs

     total energy              =   -3488.68947085 Ry
     estimated scf accuracy    <       0.00317250 Ry

     total magnetization       =    32.00 Bohr mag/cell
     absolute magnetization    =    32.09 Bohr mag/cell

     iteration #  8     ecut=    60.00 Ry     beta= 0.30
     Davidson diagonalization with overlap
     ethr =  1.32E-06,  avg # of iterations =  5.0

     negative rho (up, down):  0.000E+00 3.246E-03

     total cpu time spent up to now is     8210.7 secs

     total energy              =   -3488.69075035 Ry
     estimated scf accuracy    <       0.00041861 Ry

     total magnetization       =    32.00 Bohr mag/cell
     absolute magnetization    =    32.09 Bohr mag/cell

     iteration #  9     ecut=    60.00 Ry     beta= 0.30
     Davidson diagonalization with overlap
     ethr =  1.74E-07,  avg # of iterations =  4.1

     negative rho (up, down):  0.000E+00 3.243E-03

     total cpu time spent up to now is     8265.0 secs

     total energy              =   -3488.69110417 Ry
     estimated scf accuracy    <       0.00039868 Ry

     total magnetization       =    32.00 Bohr mag/cell
     absolute magnetization    =    32.09 Bohr mag/cell

     iteration # 10     ecut=    60.00 Ry     beta= 0.30
     Davidson diagonalization with overlap
     ethr =  1.66E-07,  avg # of iterations =  3.1

     negative rho (up, down):  0.000E+00 3.241E-03

     total cpu time spent up to now is     8319.0 secs

     total energy              =   -3488.69035313 Ry
     estimated scf accuracy    <       0.00132910 Ry

     total magnetization       =    32.00 Bohr mag/cell
     absolute magnetization    =    32.09 Bohr mag/cell

     iteration # 11     ecut=    60.00 Ry     beta= 0.30
     Davidson diagonalization with overlap
     ethr =  1.66E-07,  avg # of iterations =  5.8

     negative rho (up, down):  0.000E+00 3.240E-03

     total cpu time spent up to now is     8431.9 secs

     total energy              =   -3488.69079740 Ry
     estimated scf accuracy    <       0.00030936 Ry

     total magnetization       =    32.00 Bohr mag/cell
     absolute magnetization    =    32.09 Bohr mag/cell

     iteration # 12     ecut=    60.00 Ry     beta= 0.30
     Davidson diagonalization with overlap
     ethr =  1.29E-07,  avg # of iterations =  1.6

     negative rho (up, down):  0.000E+00 3.243E-03

     total cpu time spent up to now is     8477.5 secs

     total energy              =   -3488.69070508 Ry
     estimated scf accuracy    <       0.00016196 Ry

     total magnetization       =    32.00 Bohr mag/cell
     absolute magnetization    =    32.09 Bohr mag/cell

     iteration # 13     ecut=    60.00 Ry     beta= 0.30
     Davidson diagonalization with overlap
     ethr =  6.75E-08,  avg # of iterations =  4.4

     negative rho (up, down):  0.000E+00 3.242E-03

     total cpu time spent up to now is     8547.2 secs

     total energy              =   -3488.69077995 Ry
     estimated scf accuracy    <       0.00003757 Ry

     total magnetization       =    32.00 Bohr mag/cell
     absolute magnetization    =    32.09 Bohr mag/cell

     iteration # 14     ecut=    60.00 Ry     beta= 0.30
     Davidson diagonalization with overlap
     ethr =  1.57E-08,  avg # of iterations =  2.0

     negative rho (up, down):  0.000E+00 3.241E-03

     total cpu time spent up to now is     8595.7 secs

     total energy              =   -3488.69076966 Ry
     estimated scf accuracy    <       0.00002747 Ry

     total magnetization       =    32.00 Bohr mag/cell
     absolute magnetization    =    32.09 Bohr mag/cell

     iteration # 15     ecut=    60.00 Ry     beta= 0.30
     Davidson diagonalization with overlap
     ethr =  1.14E-08,  avg # of iterations =  4.1

     negative rho (up, down):  0.000E+00 3.241E-03

     total cpu time spent up to now is     8652.2 secs

     total energy              =   -3488.69077695 Ry
     estimated scf accuracy    <       0.00000394 Ry

     total magnetization       =    32.00 Bohr mag/cell
     absolute magnetization    =    32.09 Bohr mag/cell

     iteration # 16     ecut=    60.00 Ry     beta= 0.30
     Davidson diagonalization with overlap
     ethr =  1.64E-09,  avg # of iterations =  5.9

     negative rho (up, down):  0.000E+00 3.243E-03

     total cpu time spent up to now is     8740.1 secs

     total energy              =   -3488.69078066 Ry
     estimated scf accuracy    <       0.00000736 Ry

     total magnetization       =    32.00 Bohr mag/cell
     absolute magnetization    =    32.09 Bohr mag/cell

     iteration # 17     ecut=    60.00 Ry     beta= 0.30
     Davidson diagonalization with overlap
     ethr =  1.64E-09,  avg # of iterations =  4.2

     negative rho (up, down):  0.000E+00 3.243E-03

     total cpu time spent up to now is     8811.4 secs

     total energy              =   -3488.69078418 Ry
     estimated scf accuracy    <       0.00000152 Ry

     total magnetization       =    32.00 Bohr mag/cell
     absolute magnetization    =    32.09 Bohr mag/cell

     iteration # 18     ecut=    60.00 Ry     beta= 0.30
     Davidson diagonalization with overlap
     ethr =  6.33E-10,  avg # of iterations =  4.6

     negative rho (up, down):  0.000E+00 3.243E-03

     total cpu time spent up to now is     8882.5 secs

     total energy              =   -3488.69078485 Ry
     estimated scf accuracy    <       0.00000592 Ry

     total magnetization       =    32.00 Bohr mag/cell
     absolute magnetization    =    32.09 Bohr mag/cell

     iteration # 19     ecut=    60.00 Ry     beta= 0.30
     Davidson diagonalization with overlap
     ethr =  6.33E-10,  avg # of iterations =  2.2

     negative rho (up, down):  0.000E+00 3.243E-03

     total cpu time spent up to now is     8933.9 secs

     total energy              =   -3488.69078397 Ry
     estimated scf accuracy    <       0.00000387 Ry

     total magnetization       =    32.00 Bohr mag/cell
     absolute magnetization    =    32.09 Bohr mag/cell

     iteration # 20     ecut=    60.00 Ry     beta= 0.30
     Davidson diagonalization with overlap
     ethr =  6.33E-10,  avg # of iterations =  6.4

     negative rho (up, down):  0.000E+00 3.243E-03

     total cpu time spent up to now is     9022.7 secs

     total energy              =   -3488.69078579 Ry
     estimated scf accuracy    <       0.00000035 Ry

     total magnetization       =    32.00 Bohr mag/cell
     absolute magnetization    =    32.09 Bohr mag/cell

     iteration # 21     ecut=    60.00 Ry     beta= 0.30
     Davidson diagonalization with overlap
     ethr =  1.45E-10,  avg # of iterations =  3.6

     negative rho (up, down):  0.000E+00 3.243E-03

     total cpu time spent up to now is     9073.2 secs

     total energy              =   -3488.69078571 Ry
     estimated scf accuracy    <       0.00000028 Ry

     total magnetization       =    32.00 Bohr mag/cell
     absolute magnetization    =    32.09 Bohr mag/cell

     iteration # 22     ecut=    60.00 Ry     beta= 0.30
     Davidson diagonalization with overlap
     ethr =  1.18E-10,  avg # of iterations =  3.8

     negative rho (up, down):  0.000E+00 3.242E-03

     Magnetic moment per site:
     atom:    1    charge:   13.3643    magn:    3.3437    constr:    0.0000
     atom:    2    charge:   13.3643    magn:    3.3437    constr:    0.0000
     atom:    3    charge:   13.3643    magn:    3.3437    constr:    0.0000
     atom:    4    charge:   13.3643    magn:    3.3437    constr:    0.0000
     atom:    5    charge:   13.3305    magn:    3.3926    constr:    0.0000
     atom:    6    charge:   13.3305    magn:    3.3926    constr:    0.0000
     atom:    7    charge:   13.3305    magn:    3.3926    constr:    0.0000
     atom:    8    charge:   13.3305    magn:    3.3926    constr:    0.0000
     atom:    9    charge:    0.3891    magn:    0.0040    constr:    0.0000
     atom:   10    charge:    0.3891    magn:    0.0040    constr:    0.0000
     atom:   11    charge:    0.3891    magn:    0.0040    constr:    0.0000
     atom:   12    charge:    0.3891    magn:    0.0040    constr:    0.0000
     atom:   13    charge:    4.0302    magn:    0.1042    constr:    0.0000
     atom:   14    charge:    4.0302    magn:    0.1042    constr:    0.0000
     atom:   15    charge:    4.0302    magn:    0.1042    constr:    0.0000
     atom:   16    charge:    4.0302    magn:    0.1042    constr:    0.0000
     atom:   17    charge:    4.0238    magn:    0.1224    constr:    0.0000
     atom:   18    charge:    4.0238    magn:    0.1224    constr:    0.0000
     atom:   19    charge:    4.0238    magn:    0.1224    constr:    0.0000
     atom:   20    charge:    4.0238    magn:    0.1224    constr:    0.0000
     atom:   21    charge:    4.0203    magn:    0.1179    constr:    0.0000
     atom:   22    charge:    4.0203    magn:    0.1179    constr:    0.0000
     atom:   23    charge:    4.0203    magn:    0.1179    constr:    0.0000
     atom:   24    charge:    4.0203    magn:    0.1179    constr:    0.0000
     atom:   25    charge:    4.0203    magn:    0.1179    constr:    0.0000
     atom:   26    charge:    4.0203    magn:    0.1179    constr:    0.0000
     atom:   27    charge:    4.0203    magn:    0.1179    constr:    0.0000
     atom:   28    charge:    4.0203    magn:    0.1179    constr:    0.0000

     total cpu time spent up to now is     9129.0 secs

     End of self-consistent calculation

 ------ SPIN UP ------------


          k = 0.0000 0.0000 0.0000 ( 15339 PWs)   bands (ev):

   -79.2666 -79.2666 -79.2666 -79.2665 -79.1162 -79.1162 -79.1146 -79.1146
   -45.9179 -45.9179 -45.9167 -45.9167 -45.6034 -45.6034 -45.5969 -45.5969
   -45.2833 -45.2833 -45.2831 -45.2831 -45.0785 -45.0783 -45.0764 -45.0763
   -44.8589 -44.8589 -44.8351 -44.8351 -44.7387 -44.7387 -44.7379 -44.7379
   -11.3771 -11.1723 -10.8920 -10.7733  -9.7474  -9.7186  -9.6972  -9.6593
    -9.6544  -9.5478  -9.4862  -9.4633  -9.4336  -9.4118  -9.4068  -9.3298
     1.0224   1.0628   1.5841   1.6004   1.6811   1.6899   2.3348   2.3494
     2.3835   2.7922   2.9022   3.0250   3.1129   3.6979   3.7477   3.7899
     4.0122   4.1109   4.1188   4.1334   4.2370   4.3101   4.4101   4.4265
     4.4430   4.4500   4.5264   4.5888   4.6594   4.6719   4.7132   4.8436
     4.8494   4.8629   4.9691   5.0365   5.1960   5.2368   5.2828   5.3226
     5.4318   5.6758   5.9004   5.9679   6.0238   6.1903   6.2251   6.3178
     6.8006   7.0398   7.0592   7.0908   7.1300   7.1571   7.2111   7.3412
     7.3919   7.3955   7.4106   7.4712   7.5092   7.5622   7.8453   7.8467
     7.8497   7.9149   8.0391   8.0427   8.0742   8.1179   8.1356   8.2963
     8.3209   8.3289   8.4033   8.4081   8.7576   8.7909   8.8965   9.0711
     9.1023   9.1054   9.1662   9.3341   9.3361   9.4127   9.4620   9.7135
    11.4058  13.5121  13.9031  15.2246  16.0236  16.0507  16.2904  16.3528

          k = 0.0000 0.0000-0.3883 ( 15392 PWs)   bands (ev):

   -79.2666 -79.2666 -79.2666 -79.2666 -79.1154 -79.1154 -79.1154 -79.1154
   -45.9174 -45.9174 -45.9174 -45.9174 -45.6001 -45.6001 -45.6001 -45.6001
   -45.2832 -45.2832 -45.2832 -45.2832 -45.0774 -45.0774 -45.0773 -45.0773
   -44.8471 -44.8471 -44.8471 -44.8471 -44.7383 -44.7383 -44.7383 -44.7383
   -11.0994 -11.0994 -11.0098 -11.0098  -9.7157  -9.7157  -9.6985  -9.6985
    -9.6644  -9.6644  -9.4792  -9.4792  -9.4097  -9.4097  -9.3319  -9.3319
     1.3461   1.3461   1.3986   1.3986   2.0790   2.0790   2.1207   2.1207
     2.7573   2.7573   3.2019   3.2019   3.4624   3.4624   3.7270   3.7270
     3.7773   3.7773   3.9950   3.9950   4.1924   4.1924   4.3530   4.3530
     4.4187   4.4187   4.4797   4.4797   4.6859   4.6859   4.7382   4.7382
     4.8786   4.8786   5.0760   5.0760   5.1016   5.1016   5.4542   5.4542
     5.5963   5.5963   5.6828   5.6828   5.8266   5.8266   5.8939   5.8939
     7.0888   7.0888   7.0963   7.0963   7.2031   7.2031   7.2465   7.2465
     7.5014   7.5014   7.5200   7.5200   7.6082   7.6082   7.7545   7.7545
     8.0340   8.0340   8.0460   8.0460   8.1390   8.1390   8.2140   8.2140
     8.3929   8.3929   8.5198   8.5198   8.7617   8.7617   8.7827   8.7827
     8.9661   8.9661   9.0390   9.0390   9.2604   9.2604   9.5177   9.5177
    13.2987  13.2987  14.4773  14.4773  15.1936  15.1936  16.6702  16.6702

          k =-0.4901 0.0000 0.0000 ( 15374 PWs)   bands (ev):

   -79.2666 -79.2666 -79.2666 -79.2666 -79.1162 -79.1162 -79.1146 -79.1146
   -45.9173 -45.9173 -45.9173 -45.9173 -45.6034 -45.6034 -45.5969 -45.5969
   -45.2832 -45.2832 -45.2832 -45.2832 -45.0784 -45.0784 -45.0763 -45.0763
   -44.8590 -44.8590 -44.8351 -44.8351 -44.7383 -44.7383 -44.7383 -44.7383
   -10.9820 -10.9820 -10.7269 -10.7269 -10.0939 -10.0939  -9.8564  -9.8564
    -9.5974  -9.5974  -9.4460  -9.4460  -9.4212  -9.4212  -9.3800  -9.3800
     1.1247   1.1247   1.2559   1.2559   2.6776   2.6776   2.7662   2.7662
     2.9849   2.9849   3.0060   3.0060   3.2669   3.2669   3.3307   3.3307
     3.5672   3.5672   3.6467   3.6467   3.7297   3.7297   4.2416   4.2416
     4.3905   4.3905   4.5028   4.5028   4.8248   4.8248   4.9173   4.9173
     4.9699   4.9699   5.0438   5.0438   5.3064   5.3064   5.5520   5.5520
     5.5720   5.5720   5.8802   5.8802   6.0290   6.0290   6.5887   6.5887
     7.0147   7.0147   7.0789   7.0789   7.1827   7.1827   7.2609   7.2609
     7.3255   7.3255   7.3414   7.3414   7.5499   7.5499   7.7675   7.7675
     7.8333   7.8333   8.0590   8.0590   8.0900   8.0900   8.2545   8.2545
     8.5892   8.5892   8.7021   8.7021   8.7510   8.7510   8.8153   8.8153
     8.9996   8.9996   9.1176   9.1176   9.3537   9.3537   9.3850   9.3850
    13.9502  13.9502  14.8927  14.8927  15.3404  15.3404  15.4060  15.4060

          k =-0.4901 0.0000-0.3883 ( 15436 PWs)   bands (ev):

   -79.2667 -79.2667 -79.2666 -79.2666 -79.1154 -79.1154 -79.1154 -79.1154
   -45.9174 -45.9174 -45.9174 -45.9174 -45.6001 -45.6001 -45.6001 -45.6001
   -45.2832 -45.2832 -45.2832 -45.2832 -45.0774 -45.0774 -45.0773 -45.0773
   -44.8471 -44.8471 -44.8471 -44.8471 -44.7383 -44.7383 -44.7383 -44.7383
   -10.8583 -10.8583 -10.8199 -10.8199  -9.9862  -9.9862  -9.9832  -9.9832
    -9.5833  -9.5833  -9.5229  -9.5229  -9.3909  -9.3909  -9.3860  -9.3860
     1.2947   1.2947   1.2948   1.2948   2.7171   2.7171   2.9120   2.9120
     3.1043   3.1043   3.1595   3.1595   3.2083   3.2083   3.4176   3.4176
     3.5138   3.5138   3.6340   3.6340   3.7410   3.7410   3.8164   3.8164
     4.2367   4.2367   4.5508   4.5508   5.0003   5.0003   5.0538   5.0538
     5.1110   5.1110   5.2671   5.2671   5.2847   5.2847   5.3182   5.3182
     5.5321   5.5321   5.6041   5.6041   5.9163   5.9163   6.0680   6.0680
     7.0406   7.0406   7.1513   7.1513   7.2807   7.2807   7.2861   7.2861
     7.3303   7.3303   7.4900   7.4900   7.6971   7.6971   7.7223   7.7223
     7.7904   7.7904   7.9440   7.9440   8.0166   8.0166   8.1326   8.1326
     8.4398   8.4398   8.4687   8.4687   8.4713   8.4713   8.8580   8.8580
     9.1099   9.1099   9.1284   9.1284   9.2603   9.2603   9.5881   9.5881
    14.9721  14.9721  15.1219  15.1220  15.6780  15.6780  15.9017  15.9219

 ------ SPIN DOWN ----------


          k = 0.0000 0.0000 0.0000 ( 15339 PWs)   bands (ev):

   -75.0729 -75.0729 -75.0727 -75.0726 -75.0073 -75.0071 -75.0054 -75.0053
   -41.3961 -41.3961 -41.3942 -41.3942 -41.2805 -41.2804 -41.2714 -41.2714
   -41.2341 -41.2340 -41.2336 -41.2334 -41.1403 -41.1399 -41.1369 -41.1368
   -41.0905 -41.0905 -41.0619 -41.0618 -41.0232 -41.0232 -41.0223 -41.0222
   -11.1612 -10.9590 -10.6801 -10.5624  -9.5272  -9.4895  -9.4651  -9.4293
    -9.4112  -9.3033  -9.2384  -9.2225  -9.1738  -9.1615  -9.1519  -9.0833
     1.2942   1.3195   1.8089   1.8891   1.9258   2.0432   2.6884   2.7139
     2.7855   3.1905   3.3017   3.3069   3.5122   4.0694   4.0779   4.1053
     4.4777   4.6223   4.7686   4.7697   4.7978   4.9106   4.9694   4.9755
     4.9825   5.1346   5.1350   5.2267   5.3351   5.4063   5.4071   5.5366
     5.5636   5.5714   5.6891   5.7201   5.7533   5.7920   5.8577   5.9614
     6.2203   6.3264   6.3666   6.4575   6.6299   6.6327   6.6973   6.8413
     9.9924  10.0445  10.2563  10.2567  10.3255  10.4200  10.4302  10.4588
    10.4938  10.6007  10.6806  10.8889  10.9210  10.9271  10.9415  10.9547
    10.9762  11.1023  11.1196  11.2017  11.2268  11.2370  11.3730  11.3803
    11.8654  11.9061  11.9739  11.9866  12.0862  12.2045  12.2735  12.3170
    12.3295  12.4078  12.4144  12.4426  12.4911  12.5949  12.6368  12.8032
    12.8514  14.0979  14.4119  15.7006  16.4247  16.6655  16.7191  16.7306

          k = 0.0000 0.0000-0.3883 ( 15392 PWs)   bands (ev):

   -75.0728 -75.0728 -75.0728 -75.0728 -75.0064 -75.0064 -75.0063 -75.0063
   -41.3953 -41.3953 -41.3952 -41.3952 -41.2759 -41.2759 -41.2758 -41.2758
   -41.2338 -41.2338 -41.2337 -41.2337 -41.1385 -41.1385 -41.1383 -41.1383
   -41.0764 -41.0764 -41.0764 -41.0764 -41.0228 -41.0228 -41.0227 -41.0227
   -10.8852 -10.8852 -10.7977 -10.7977  -9.4790  -9.4790  -9.4732  -9.4732
    -9.4261  -9.4261  -9.2336  -9.2336  -9.1572  -9.1572  -9.0811  -9.0811
     1.5994   1.5994   1.6454   1.6454   2.4436   2.4436   2.4647   2.4647
     3.1226   3.1226   3.5453   3.5453   3.8338   3.8338   4.0846   4.0846
     4.3174   4.3174   4.5554   4.5554   4.7654   4.7654   4.8606   4.8606
     4.9531   4.9531   5.1210   5.1210   5.3563   5.3563   5.3949   5.3949
     5.6610   5.6610   5.7644   5.7644   5.8112   5.8112   5.9738   5.9738
     6.0555   6.0555   6.1693   6.1693   6.5601   6.5601   6.6570   6.6570
    10.3691  10.3691  10.3982  10.3982  10.4280  10.4280  10.4530  10.4530
    10.6602  10.6602  10.7240  10.7240  10.8921  10.8921  10.8969  10.8969
    11.0044  11.0044  11.0639  11.0639  11.1787  11.1787  11.3106  11.3106
    11.7854  11.7854  11.9205  11.9205  12.2371  12.2371  12.2863  12.2863
    12.3866  12.3866  12.4178  12.4178  12.6312  12.6312  12.7001  12.7001
    13.8789  13.8789  14.9782  14.9782  15.6873  15.6873  16.9786  16.9786

          k =-0.4901 0.0000 0.0000 ( 15374 PWs)   bands (ev):

   -75.0729 -75.0729 -75.0727 -75.0727 -75.0073 -75.0073 -75.0054 -75.0054
   -41.3952 -41.3952 -41.3952 -41.3952 -41.2805 -41.2805 -41.2715 -41.2715
   -41.2339 -41.2339 -41.2336 -41.2336 -41.1401 -41.1401 -41.1368 -41.1368
   -41.0905 -41.0905 -41.0619 -41.0619 -41.0228 -41.0228 -41.0227 -41.0227
   -10.7699 -10.7699 -10.5070 -10.5070  -9.8700  -9.8700  -9.6349  -9.6349
    -9.3434  -9.3434  -9.1978  -9.1978  -9.1783  -9.1783  -9.1303  -9.1303
     1.4192   1.4192   1.4856   1.4856   3.0045   3.0045   3.0784   3.0784
     3.4002   3.4002   3.4235   3.4235   3.6864   3.6864   3.7819   3.7819
     4.0489   4.0489   4.0694   4.0694   4.1320   4.1320   4.5956   4.5956
     5.0024   5.0024   5.1194   5.1194   5.5569   5.5569   5.6487   5.6487
     5.8405   5.8405   5.8670   5.8670   6.0120   6.0120   6.0938   6.0938
     6.2083   6.2083   6.5111   6.5111   6.5913   6.5913   7.0099   7.0099
    10.0115  10.0115  10.2011  10.2011  10.3766  10.3766  10.5038  10.5038
    10.6066  10.6066  10.7345  10.7345  10.9816  10.9816  11.0166  11.0166
    11.0543  11.0543  11.1729  11.1729  11.2258  11.2258  11.4082  11.4082
    12.0060  12.0060  12.0081  12.0081  12.0437  12.0437  12.1694  12.1694
    12.3032  12.3032  12.4435  12.4435  12.6294  12.6294  12.6710  12.6710
    14.3915  14.3915  15.2364  15.2364  15.8737  15.8737  15.9816  15.9816

          k =-0.4901 0.0000-0.3883 ( 15436 PWs)   bands (ev):

   -75.0729 -75.0729 -75.0728 -75.0728 -75.0064 -75.0064 -75.0064 -75.0064
   -41.3953 -41.3953 -41.3952 -41.3952 -41.2760 -41.2760 -41.2758 -41.2758
   -41.2339 -41.2339 -41.2336 -41.2336 -41.1385 -41.1385 -41.1383 -41.1383
   -41.0764 -41.0764 -41.0764 -41.0764 -41.0228 -41.0228 -41.0227 -41.0227
   -10.6430 -10.6430 -10.6046 -10.6046  -9.7616  -9.7616  -9.7608  -9.7608
    -9.3320  -9.3320  -9.2758  -9.2758  -9.1419  -9.1419  -9.1390  -9.1390
     1.5536   1.5536   1.5854   1.5854   3.1171   3.1171   3.3422   3.3422
     3.4796   3.4796   3.5627   3.5627   3.5978   3.5978   3.7696   3.7696
     3.9507   3.9507   4.0209   4.0209   4.2808   4.2808   4.3193   4.3193
     4.6683   4.6683   5.0261   5.0261   5.5596   5.5596   5.5698   5.5698
     5.7778   5.7778   5.8959   5.8959   6.1340   6.1340   6.1940   6.1940
     6.2583   6.2583   6.3468   6.3468   6.4611   6.4611   6.6659   6.6659
    10.2888  10.2888  10.3070  10.3070  10.4496  10.4496  10.4559  10.4559
    10.7522  10.7522  10.7755  10.7755  10.9134  10.9134  10.9293  10.9293
    11.0050  11.0050  11.0822  11.0822  11.1767  11.1767  11.2655  11.2655
    11.7554  11.7554  11.7827  11.7827  12.0141  12.0141  12.1165  12.1165
    12.3294  12.3294  12.4083  12.4083  12.5416  12.5416  12.8386  12.8386
    15.3842  15.3842  15.5732  15.5732  16.2300  16.2300  16.3963  16.3965

     the Fermi energy is    10.5551 ev

!    total energy              =   -3488.69078584 Ry

     total all-electron energy =    -25093.996754 Ry
     estimated scf accuracy    <       0.00000002 Ry
     smearing contrib. (-TS)   =      -0.01053162 Ry
     internal energy E=F+TS    =   -3488.68025422 Ry

     The total energy is F=E-TS. E is the sum of the following terms:
     one-electron contribution =   -1488.33249529 Ry
     hartree contribution      =     871.36842510 Ry
     xc contribution           =    -368.45987110 Ry
     ewald contribution        =   -1545.50095793 Ry
     one-center paw contrib.   =    -957.75535499 Ry

     total magnetization       =    32.00 Bohr mag/cell
     absolute magnetization    =    32.09 Bohr mag/cell

     convergence has been achieved in  22 iterations

     negative rho (up, down):  0.000E+00 3.242E-03

     Forces acting on atoms (cartesian axes, Ry/au):

     atom    1 type  1   force =     0.00000000    0.00000000   -0.00000000
     atom    2 type  1   force =    -0.00000000   -0.00000000   -0.00000000
     atom    3 type  1   force =     0.00000000    0.00000000    0.00000000
     atom    4 type  1   force =     0.00000000    0.00000000   -0.00000000
     atom    5 type  1   force =     0.00764705   -0.00065432    0.00000000
     atom    6 type  1   force =    -0.00764705    0.00065432    0.00000000
     atom    7 type  1   force =     0.00764705    0.00065432   -0.00000000
     atom    8 type  1   force =    -0.00764705   -0.00065432    0.00000000
     atom    9 type  2   force =    -0.00382672    0.00210577   -0.00000000
     atom   10 type  2   force =     0.00382672   -0.00210577   -0.00000000
     atom   11 type  2   force =    -0.00382672   -0.00210577   -0.00000000
     atom   12 type  2   force =     0.00382672    0.00210577   -0.00000000
     atom   13 type  3   force =     0.00240048    0.01163158    0.00000000
     atom   14 type  3   force =    -0.00240048   -0.01163158    0.00000000
     atom   15 type  3   force =     0.00240048   -0.01163158    0.00000000
     atom   16 type  3   force =    -0.00240048    0.01163158    0.00000000
     atom   17 type  3   force =     0.00555081   -0.00136210   -0.00000000
     atom   18 type  3   force =    -0.00555081    0.00136210   -0.00000000
     atom   19 type  3   force =     0.00555081    0.00136210    0.00000000
     atom   20 type  3   force =    -0.00555081   -0.00136210    0.00000000
     atom   21 type  3   force =    -0.00666253   -0.00968396    0.00746820
     atom   22 type  3   force =     0.00666253    0.00968396   -0.00746820
     atom   23 type  3   force =    -0.00666253    0.00968396   -0.00746820
     atom   24 type  3   force =     0.00666253   -0.00968396    0.00746820
     atom   25 type  3   force =     0.00666253    0.00968396    0.00746820
     atom   26 type  3   force =    -0.00666253   -0.00968396   -0.00746820
     atom   27 type  3   force =     0.00666253   -0.00968396   -0.00746820
     atom   28 type  3   force =    -0.00666253    0.00968396    0.00746820

     Total force =     0.050580     Total SCF correction =     0.000189


     Computing stress (Cartesian axis) and pressure


     negative rho (up, down):  0.000E+00 3.242E-03
          total   stress  (Ry/bohr**3)                   (kbar)     P=        5.84
   0.00007882   0.00000000   0.00000000           11.59        0.00        0.00
   0.00000000   0.00006416   0.00000000            0.00        9.44        0.00
   0.00000000   0.00000000  -0.00002378            0.00        0.00       -3.50

     Energy error            =      7.2E-03
     Gradient error          =      1.2E-02
     Cell gradient error     =      7.9E-05


     number of scf cycles    =   5
     number of bfgs steps    =   4

     enthalpy old            =   -3488.6836170972 Ry
     enthalpy new            =   -3488.6907858357 Ry

     CASE: enthalpy_new < enthalpy_old

     new trust radius        =       0.0363021597 bohr
     new conv_thr            =       0.0000001000 Ry

     new unit-cell volume =   2095.69683 a.u.^3 (   310.55023 Ang^3 )
     density =      4.35832 g/cm^3

CELL_PARAMETERS (angstrom)
   4.864315362   0.000000000   0.000000000
   0.000000000  10.460502216   0.000000000
   0.000000000   0.000000000   6.103199927

ATOMIC_POSITIONS (angstrom)
Fe            0.0000000000       -0.0000000000        0.0000000000
Fe            2.4321576810        5.2302511080       -0.0000000000
Fe           -0.0000000000        0.0000000000        3.0515999633
Fe            2.4321576810        5.2302511080        3.0515999633
Fe            0.0998601218        2.9077772743        4.5773999449
Fe            4.7644552402        7.5527249417        1.5257999816
Fe            2.5320178028        2.3224738337        1.5257999816
Fe            2.3322975592        8.1380283822        4.5773999449
Si            0.3680169089        4.2595990395        1.5257999816
Si            4.4962984531        6.2009031764        4.5773999449
Si            2.8001745899        0.9706520684        4.5773999449
Si            2.0641407721        9.4898501475        1.5257999816
O             1.1631988694        0.9467406096        4.5773999449
O             3.7011164926        9.5137616063        1.5257999816
O             3.5953565504        4.2835104983        1.5257999816
O             1.2689588116        6.1769917176        4.5773999449
O             1.4191616044        0.5679363325        1.5257999816
O             3.4451537576        9.8925658835        4.5773999449
O             3.8513192854        4.6623147755        4.5773999449
O             1.0129960766        5.7981874404        1.5257999816
O             1.0643987725        3.5237742502        2.8400132294
O             3.7999165895        6.9367279658        3.2631866972
O             3.4965564535        1.7064768578        3.2631866972
O             1.3677589085        8.7540253582        2.8400132294
O             3.7999165895        6.9367279658        5.8916131927
O             1.0643987725        3.5237742502        0.2115867339
O             1.3677589085        8.7540253582        0.2115867339
O             3.4965564535        1.7064768578        5.8916131927



     Writing output data file ./out/oliv.save/
     NEW-OLD atomic charge density approx. for the potential

     Check: negative core charge=   -0.000002

     negative rho (up, down):  0.000E+00 3.077E-03
     extrapolated charge  240.74908, renormalised to  240.00000
     Generating pointlists ...

     total cpu time spent up to now is     9178.8 secs

     Self-consistent Calculation

     iteration #  1     ecut=    60.00 Ry     beta= 0.30
     Davidson diagonalization with overlap
     c_bands:  1 eigenvalues not converged
     ethr =  1.00E-06,  avg # of iterations = 12.9

     negative rho (up, down):  0.000E+00 3.144E-03

     total cpu time spent up to now is     9395.8 secs

     total energy              =   -3488.64637420 Ry
     estimated scf accuracy    <       0.06884311 Ry

     total magnetization       =    32.00 Bohr mag/cell
     absolute magnetization    =    32.11 Bohr mag/cell

     iteration #  2     ecut=    60.00 Ry     beta= 0.30
     Davidson diagonalization with overlap
     ethr =  2.87E-05,  avg # of iterations =  4.0

     negative rho (up, down):  0.000E+00 3.133E-03

     total cpu time spent up to now is     9463.2 secs

     total energy              =   -3488.63187825 Ry
     estimated scf accuracy    <       2.15416096 Ry

     total magnetization       =    32.00 Bohr mag/cell
     absolute magnetization    =    32.10 Bohr mag/cell

     iteration #  3     ecut=    60.00 Ry     beta= 0.30
     Davidson diagonalization with overlap
     ethr =  2.87E-05,  avg # of iterations =  2.0

     negative rho (up, down):  0.000E+00 3.090E-03

     total cpu time spent up to now is     9508.4 secs

     total energy              =   -3488.69229893 Ry
     estimated scf accuracy    <       0.10849880 Ry

     total magnetization       =    32.00 Bohr mag/cell
     absolute magnetization    =    32.08 Bohr mag/cell

     iteration #  4     ecut=    60.00 Ry     beta= 0.30
     Davidson diagonalization with overlap
     ethr =  2.87E-05,  avg # of iterations =  1.6

     negative rho (up, down):  0.000E+00 3.070E-03

     total cpu time spent up to now is     9545.9 secs

     total energy              =   -3488.69457693 Ry
     estimated scf accuracy    <       0.01557415 Ry

     total magnetization       =    32.00 Bohr mag/cell
     absolute magnetization    =    32.08 Bohr mag/cell

     iteration #  5     ecut=    60.00 Ry     beta= 0.30
     Davidson diagonalization with overlap
     ethr =  6.49E-06,  avg # of iterations =  2.4

     negative rho (up, down):  0.000E+00 3.049E-03

     total cpu time spent up to now is     9579.3 secs

     total energy              =   -3488.69455696 Ry
     estimated scf accuracy    <       0.00728321 Ry

     total magnetization       =    32.00 Bohr mag/cell
     absolute magnetization    =    32.09 Bohr mag/cell

     iteration #  6     ecut=    60.00 Ry     beta= 0.30
     Davidson diagonalization with overlap
     c_bands:  1 eigenvalues not converged
     ethr =  3.03E-06,  avg # of iterations =  5.6

     negative rho (up, down):  0.000E+00 3.033E-03

     total cpu time spent up to now is     9624.7 secs

     total energy              =   -3488.69527801 Ry
     estimated scf accuracy    <       0.00058671 Ry

     total magnetization       =    32.00 Bohr mag/cell
     absolute magnetization    =    32.09 Bohr mag/cell

     iteration #  7     ecut=    60.00 Ry     beta= 0.30
     Davidson diagonalization with overlap
     ethr =  2.44E-07,  avg # of iterations =  6.9

     negative rho (up, down):  0.000E+00 3.033E-03

     total cpu time spent up to now is     9701.7 secs

     total energy              =   -3488.69569288 Ry
     estimated scf accuracy    <       0.00047626 Ry

     total magnetization       =    32.00 Bohr mag/cell
     absolute magnetization    =    32.09 Bohr mag/cell

     iteration #  8     ecut=    60.00 Ry     beta= 0.30
     Davidson diagonalization with overlap
     ethr =  1.98E-07,  avg # of iterations =  1.9

     negative rho (up, down):  0.000E+00 3.032E-03

     total cpu time spent up to now is     9742.9 secs

     total energy              =   -3488.69567285 Ry
     estimated scf accuracy    <       0.00016851 Ry

     total magnetization       =    32.00 Bohr mag/cell
     absolute magnetization    =    32.09 Bohr mag/cell

     iteration #  9     ecut=    60.00 Ry     beta= 0.30
     Davidson diagonalization with overlap
     ethr =  7.02E-08,  avg # of iterations =  5.8

     negative rho (up, down):  0.000E+00 3.030E-03

     total cpu time spent up to now is     9830.4 secs

     total energy              =   -3488.69576975 Ry
     estimated scf accuracy    <       0.00032457 Ry

     total magnetization       =    32.00 Bohr mag/cell
     absolute magnetization    =    32.09 Bohr mag/cell

     iteration # 10     ecut=    60.00 Ry     beta= 0.30
     Davidson diagonalization with overlap
     ethr =  7.02E-08,  avg # of iterations =  1.4

     negative rho (up, down):  0.000E+00 3.029E-03

     total cpu time spent up to now is     9877.3 secs

     total energy              =   -3488.69567373 Ry
     estimated scf accuracy    <       0.00016560 Ry

     total magnetization       =    32.00 Bohr mag/cell
     absolute magnetization    =    32.09 Bohr mag/cell

     iteration # 11     ecut=    60.00 Ry     beta= 0.30
     Davidson diagonalization with overlap
     ethr =  6.90E-08,  avg # of iterations =  5.5

     negative rho (up, down):  0.000E+00 3.028E-03

     total cpu time spent up to now is     9950.1 secs

     total energy              =   -3488.69573840 Ry
     estimated scf accuracy    <       0.00010076 Ry

     total magnetization       =    32.00 Bohr mag/cell
     absolute magnetization    =    32.09 Bohr mag/cell

     iteration # 12     ecut=    60.00 Ry     beta= 0.30
     Davidson diagonalization with overlap
     ethr =  4.20E-08,  avg # of iterations =  2.6

     negative rho (up, down):  0.000E+00 3.028E-03

     total cpu time spent up to now is     9994.8 secs

     total energy              =   -3488.69575233 Ry
     estimated scf accuracy    <       0.00001056 Ry

     total magnetization       =    32.00 Bohr mag/cell
     absolute magnetization    =    32.09 Bohr mag/cell

     iteration # 13     ecut=    60.00 Ry     beta= 0.30
     Davidson diagonalization with overlap
     ethr =  4.40E-09,  avg # of iterations =  7.4

     negative rho (up, down):  0.000E+00 3.028E-03

     total cpu time spent up to now is    10104.8 secs

     total energy              =   -3488.69574904 Ry
     estimated scf accuracy    <       0.00012442 Ry

     total magnetization       =    32.00 Bohr mag/cell
     absolute magnetization    =    32.09 Bohr mag/cell

     iteration # 14     ecut=    60.00 Ry     beta= 0.30
     Davidson diagonalization with overlap
     ethr =  4.40E-09,  avg # of iterations =  6.4

     negative rho (up, down):  0.000E+00 3.029E-03

     total cpu time spent up to now is    10210.1 secs

     total energy              =   -3488.69576909 Ry
     estimated scf accuracy    <       0.00000591 Ry

     total magnetization       =    32.00 Bohr mag/cell
     absolute magnetization    =    32.09 Bohr mag/cell

     iteration # 15     ecut=    60.00 Ry     beta= 0.30
     Davidson diagonalization with overlap
     ethr =  2.46E-09,  avg # of iterations =  5.8

     negative rho (up, down):  0.000E+00 3.029E-03

     total cpu time spent up to now is    10311.0 secs

     total energy              =   -3488.69577441 Ry
     estimated scf accuracy    <       0.00002175 Ry

     total magnetization       =    32.00 Bohr mag/cell
     absolute magnetization    =    32.09 Bohr mag/cell

     iteration # 16     ecut=    60.00 Ry     beta= 0.30
     Davidson diagonalization with overlap
     ethr =  2.46E-09,  avg # of iterations =  2.0

     negative rho (up, down):  0.000E+00 3.029E-03

     total cpu time spent up to now is    10372.5 secs

     total energy              =   -3488.69577456 Ry
     estimated scf accuracy    <       0.00001073 Ry

     total magnetization       =    32.00 Bohr mag/cell
     absolute magnetization    =    32.09 Bohr mag/cell

     iteration # 17     ecut=    60.00 Ry     beta= 0.30
     Davidson diagonalization with overlap
     ethr =  2.46E-09,  avg # of iterations =  4.8

     negative rho (up, down):  0.000E+00 3.029E-03

     total cpu time spent up to now is    10449.2 secs

     total energy              =   -3488.69577839 Ry
     estimated scf accuracy    <       0.00000017 Ry

     total magnetization       =    32.00 Bohr mag/cell
     absolute magnetization    =    32.09 Bohr mag/cell

     iteration # 18     ecut=    60.00 Ry     beta= 0.30
     Davidson diagonalization with overlap
     ethr =  6.92E-11,  avg # of iterations =  4.8

     negative rho (up, down):  0.000E+00 3.029E-03

     total cpu time spent up to now is    10516.9 secs

     total energy              =   -3488.69577857 Ry
     estimated scf accuracy    <       0.00000014 Ry

     total magnetization       =    32.00 Bohr mag/cell
     absolute magnetization    =    32.09 Bohr mag/cell

     iteration # 19     ecut=    60.00 Ry     beta= 0.30
     Davidson diagonalization with overlap
     ethr =  5.76E-11,  avg # of iterations =  2.0

     negative rho (up, down):  0.000E+00 3.029E-03

     Magnetic moment per site:
     atom:    1    charge:   13.3644    magn:    3.3326    constr:    0.0000
     atom:    2    charge:   13.3644    magn:    3.3326    constr:    0.0000
     atom:    3    charge:   13.3644    magn:    3.3326    constr:    0.0000
     atom:    4    charge:   13.3644    magn:    3.3326    constr:    0.0000
     atom:    5    charge:   13.3280    magn:    3.4022    constr:    0.0000
     atom:    6    charge:   13.3280    magn:    3.4022    constr:    0.0000
     atom:    7    charge:   13.3280    magn:    3.4022    constr:    0.0000
     atom:    8    charge:   13.3280    magn:    3.4022    constr:    0.0000
     atom:    9    charge:    0.3871    magn:    0.0041    constr:    0.0000
     atom:   10    charge:    0.3871    magn:    0.0041    constr:    0.0000
     atom:   11    charge:    0.3871    magn:    0.0041    constr:    0.0000
     atom:   12    charge:    0.3871    magn:    0.0041    constr:    0.0000
     atom:   13    charge:    4.0286    magn:    0.1040    constr:    0.0000
     atom:   14    charge:    4.0286    magn:    0.1040    constr:    0.0000
     atom:   15    charge:    4.0286    magn:    0.1040    constr:    0.0000
     atom:   16    charge:    4.0286    magn:    0.1040    constr:    0.0000
     atom:   17    charge:    4.0223    magn:    0.1202    constr:    0.0000
     atom:   18    charge:    4.0223    magn:    0.1202    constr:    0.0000
     atom:   19    charge:    4.0223    magn:    0.1202    constr:    0.0000
     atom:   20    charge:    4.0223    magn:    0.1202    constr:    0.0000
     atom:   21    charge:    4.0168    magn:    0.1189    constr:    0.0000
     atom:   22    charge:    4.0168    magn:    0.1189    constr:    0.0000
     atom:   23    charge:    4.0168    magn:    0.1189    constr:    0.0000
     atom:   24    charge:    4.0168    magn:    0.1189    constr:    0.0000
     atom:   25    charge:    4.0168    magn:    0.1189    constr:    0.0000
     atom:   26    charge:    4.0168    magn:    0.1189    constr:    0.0000
     atom:   27    charge:    4.0168    magn:    0.1189    constr:    0.0000
     atom:   28    charge:    4.0168    magn:    0.1189    constr:    0.0000

     total cpu time spent up to now is    10578.9 secs

     End of self-consistent calculation

 ------ SPIN UP ------------


          k = 0.0000 0.0000 0.0000 ( 15339 PWs)   bands (ev):

   -79.3481 -79.3481 -79.3481 -79.3481 -79.1559 -79.1558 -79.1541 -79.1541
   -46.0193 -46.0193 -46.0181 -46.0181 -45.6510 -45.6510 -45.6447 -45.6447
   -45.3088 -45.3088 -45.3086 -45.3086 -45.1189 -45.1187 -45.1165 -45.1164
   -44.8911 -44.8911 -44.8663 -44.8662 -44.8523 -44.8523 -44.8515 -44.8515
   -11.3799 -11.1725 -10.8939 -10.7707  -9.7688  -9.7602  -9.7167  -9.6815
    -9.6726  -9.5552  -9.5334  -9.4815  -9.4769  -9.4446  -9.4160  -9.3402
     1.0244   1.0293   1.5373   1.5656   1.6421   1.6701   2.3075   2.3133
     2.3351   2.7662   2.8902   2.9895   3.0836   3.6315   3.7058   3.7457
     3.9835   4.0653   4.0736   4.0759   4.2241   4.3313   4.3691   4.3801
     4.3947   4.4500   4.5386   4.5399   4.6295   4.6478   4.7008   4.7906
     4.8104   4.8810   4.9063   4.9778   5.1912   5.2203   5.2375   5.2884
     5.4005   5.6479   5.9012   5.9542   5.9770   6.1376   6.1697   6.2969
     6.7268   6.9778   7.0059   7.0243   7.0660   7.1147   7.1483   7.3208
     7.3282   7.3320   7.3753   7.4502   7.4769   7.5027   7.7998   7.8067
     7.8274   7.8908   7.9835   8.0029   8.0086   8.0505   8.0544   8.2019
     8.2592   8.2811   8.3291   8.3591   8.6871   8.6903   8.8363   9.0005
     9.0051   9.0119   9.1386   9.2298   9.2726   9.3394   9.4092   9.6350
    11.3346  13.4048  13.8805  15.2275  15.8928  16.0457  16.2586  16.2879

          k = 0.0000 0.0000-0.3895 ( 15392 PWs)   bands (ev):

   -79.3482 -79.3482 -79.3481 -79.3481 -79.1550 -79.1550 -79.1550 -79.1550
   -46.0188 -46.0188 -46.0187 -46.0187 -45.6478 -45.6478 -45.6478 -45.6478
   -45.3087 -45.3087 -45.3087 -45.3087 -45.1176 -45.1176 -45.1176 -45.1176
   -44.8787 -44.8787 -44.8787 -44.8787 -44.8519 -44.8519 -44.8519 -44.8519
   -11.0994 -11.0994 -11.0088 -11.0088  -9.7570  -9.7570  -9.7164  -9.7164
    -9.6761  -9.6761  -9.5107  -9.5107  -9.4350  -9.4350  -9.3534  -9.3534
     1.3142   1.3142   1.3880   1.3880   2.0339   2.0339   2.0985   2.0985
     2.7280   2.7280   3.1672   3.1672   3.4401   3.4401   3.6794   3.6794
     3.7422   3.7422   3.9589   3.9589   4.1377   4.1377   4.3185   4.3185
     4.4048   4.4048   4.4475   4.4475   4.6796   4.6796   4.7385   4.7385
     4.8238   4.8238   5.0477   5.0477   5.0893   5.0893   5.4276   5.4276
     5.5584   5.5584   5.6483   5.6483   5.7823   5.7823   5.8563   5.8563
     7.0209   7.0209   7.0344   7.0344   7.1534   7.1534   7.1904   7.1904
     7.4700   7.4700   7.4701   7.4701   7.5560   7.5560   7.7070   7.7070
     7.9713   7.9713   7.9986   7.9986   8.0729   8.0729   8.1417   8.1417
     8.3421   8.3421   8.4669   8.4669   8.7006   8.7006   8.7086   8.7086
     8.8842   8.8842   8.9489   8.9489   9.1854   9.1854   9.4442   9.4442
    13.2466  13.2466  14.4194  14.4194  15.1313  15.1313  16.6273  16.6273

          k =-0.4887 0.0000 0.0000 ( 15374 PWs)   bands (ev):

   -79.3482 -79.3482 -79.3481 -79.3481 -79.1559 -79.1559 -79.1541 -79.1541
   -46.0187 -46.0187 -46.0187 -46.0187 -45.6510 -45.6510 -45.6447 -45.6447
   -45.3087 -45.3087 -45.3086 -45.3086 -45.1188 -45.1188 -45.1164 -45.1164
   -44.8911 -44.8911 -44.8663 -44.8663 -44.8519 -44.8519 -44.8519 -44.8519
   -10.9957 -10.9957 -10.7277 -10.7277 -10.1021 -10.1021  -9.8651  -9.8651
    -9.6429  -9.6429  -9.4529  -9.4529  -9.4325  -9.4325  -9.4269  -9.4269
     1.0795   1.0795   1.1942   1.1942   2.6505   2.6505   2.7462   2.7462
     2.9501   2.9501   2.9901   2.9901   3.2582   3.2582   3.3186   3.3186
     3.5321   3.5321   3.5979   3.5979   3.7116   3.7116   4.2366   4.2366
     4.3467   4.3467   4.4270   4.4270   4.8027   4.8027   4.8701   4.8701
     4.9631   4.9631   5.0252   5.0252   5.2435   5.2435   5.5227   5.5227
     5.5776   5.5776   5.8175   5.8175   6.0014   6.0014   6.5759   6.5759
     6.9548   6.9548   7.0192   7.0192   7.1130   7.1130   7.2025   7.2025
     7.2748   7.2748   7.2862   7.2862   7.4867   7.4867   7.7153   7.7153
     7.8077   7.8077   8.0228   8.0228   8.0271   8.0271   8.1819   8.1819
     8.5255   8.5255   8.6605   8.6605   8.6971   8.6971   8.7722   8.7722
     8.9293   8.9293   9.0304   9.0304   9.2334   9.2334   9.3295   9.3295
    13.8998  13.8998  14.8373  14.8373  15.2395  15.2395  15.3501  15.3501

          k =-0.4887 0.0000-0.3895 ( 15436 PWs)   bands (ev):

   -79.3482 -79.3482 -79.3482 -79.3482 -79.1550 -79.1550 -79.1550 -79.1550
   -46.0188 -46.0188 -46.0187 -46.0187 -45.6478 -45.6478 -45.6478 -45.6478
   -45.3087 -45.3087 -45.3086 -45.3086 -45.1176 -45.1176 -45.1176 -45.1176
   -44.8787 -44.8787 -44.8787 -44.8787 -44.8519 -44.8519 -44.8519 -44.8519
   -10.8647 -10.8647 -10.8285 -10.8285  -9.9914  -9.9914  -9.9879  -9.9879
    -9.6268  -9.6268  -9.5501  -9.5501  -9.4213  -9.4213  -9.4031  -9.4031
     1.2416   1.2416   1.2440   1.2440   2.6996   2.6996   2.8884   2.8884
     3.0700   3.0700   3.1215   3.1215   3.1790   3.1790   3.3891   3.3891
     3.5032   3.5032   3.6075   3.6075   3.7181   3.7181   3.8041   3.8041
     4.2080   4.2080   4.5420   4.5420   4.9719   4.9719   5.0253   5.0253
     5.0889   5.0889   5.2130   5.2130   5.2512   5.2512   5.2887   5.2887
     5.4775   5.4775   5.5690   5.5690   5.8776   5.8776   6.0345   6.0345
     6.9870   6.9870   7.0981   7.0981   7.2391   7.2391   7.2480   7.2480
     7.2712   7.2712   7.4381   7.4381   7.6463   7.6463   7.6674   7.6674
     7.7365   7.7365   7.8899   7.8899   7.9453   7.9453   8.0650   8.0650
     8.3768   8.3768   8.4036   8.4036   8.4071   8.4071   8.7911   8.7911
     9.0351   9.0351   9.0474   9.0474   9.1683   9.1683   9.5303   9.5303
    14.9423  14.9423  15.0177  15.0177  15.6856  15.6859  15.7871  15.8042

 ------ SPIN DOWN ----------


          k = 0.0000 0.0000 0.0000 ( 15339 PWs)   bands (ev):

   -75.1410 -75.1410 -75.1409 -75.1407 -75.0607 -75.0605 -75.0588 -75.0587
   -41.4655 -41.4654 -41.4636 -41.4636 -41.3338 -41.3338 -41.3252 -41.3252
   -41.2859 -41.2857 -41.2853 -41.2852 -41.1968 -41.1965 -41.1929 -41.1928
   -41.1402 -41.1402 -41.1106 -41.1105 -41.1044 -41.1043 -41.1035 -41.1034
   -11.1644 -10.9600 -10.6817 -10.5602  -9.5485  -9.5249  -9.4848  -9.4473
    -9.4430  -9.3081  -9.2881  -9.2332  -9.2244  -9.1924  -9.1631  -9.0907
     1.2842   1.2924   1.7783   1.8446   1.8792   2.0308   2.6665   2.6688
     2.7422   3.1589   3.2725   3.2907   3.4760   4.0305   4.0384   4.0562
     4.4313   4.5926   4.7236   4.7567   4.7910   4.8891   4.9151   4.9567
     4.9641   5.1147   5.1250   5.1784   5.3006   5.3213   5.4449   5.4902
     5.5398   5.5608   5.6708   5.6971   5.7395   5.7721   5.7954   5.9431
     6.2051   6.3225   6.3330   6.4446   6.5832   6.5877   6.6575   6.8333
     9.9228   9.9581  10.1746  10.1909  10.2714  10.3711  10.3764  10.3855
    10.4243  10.5319  10.6084  10.8298  10.8922  10.8958  10.9034  10.9113
    10.9337  11.0450  11.0528  11.1640  11.1649  11.1698  11.3323  11.3345
    11.7912  11.8311  11.9172  11.9301  12.0070  12.1315  12.2243  12.2267
    12.2613  12.3174  12.3367  12.3775  12.4296  12.4954  12.5427  12.7566
    12.7826  13.9882  14.4017  15.6976  16.2574  16.6287  16.6655  16.6733

          k = 0.0000 0.0000-0.3895 ( 15392 PWs)   bands (ev):

   -75.1410 -75.1410 -75.1409 -75.1409 -75.0597 -75.0597 -75.0597 -75.0597
   -41.4646 -41.4646 -41.4646 -41.4646 -41.3294 -41.3294 -41.3294 -41.3294
   -41.2856 -41.2856 -41.2854 -41.2854 -41.1947 -41.1947 -41.1946 -41.1946
   -41.1257 -41.1257 -41.1257 -41.1257 -41.1039 -41.1039 -41.1039 -41.1039
   -10.8855 -10.8855 -10.7972 -10.7972  -9.5178  -9.5178  -9.4913  -9.4913
    -9.4406  -9.4406  -9.2633  -9.2633  -9.1840  -9.1840  -9.1024  -9.1024
     1.5693   1.5693   1.6331   1.6331   2.4012   2.4012   2.4413   2.4413
     3.0939   3.0939   3.5087   3.5087   3.8091   3.8091   4.0428   4.0428
     4.2692   4.2692   4.5134   4.5134   4.7336   4.7336   4.8536   4.8536
     4.9313   4.9313   5.1048   5.1048   5.3413   5.3413   5.3444   5.3444
     5.6222   5.6222   5.7655   5.7655   5.7817   5.7817   5.9742   5.9742
     6.0155   6.0155   6.1320   6.1320   6.5205   6.5205   6.6192   6.6192
    10.2952  10.2952  10.3401  10.3401  10.3778  10.3778  10.3780  10.3780
    10.5906  10.5906  10.6678  10.6678  10.8362  10.8362  10.8474  10.8474
    10.9427  10.9427  11.0088  11.0088  11.1336  11.1336  11.2604  11.2604
    11.7153  11.7153  11.8479  11.8479  12.1602  12.1602  12.2023  12.2023
    12.3102  12.3102  12.3550  12.3550  12.5603  12.5603  12.6284  12.6284
    13.8392  13.8392  14.9238  14.9238  15.6370  15.6370  16.9519  16.9519

          k =-0.4887 0.0000 0.0000 ( 15374 PWs)   bands (ev):

   -75.1410 -75.1410 -75.1409 -75.1409 -75.0607 -75.0607 -75.0587 -75.0587
   -41.4646 -41.4646 -41.4645 -41.4645 -41.3339 -41.3339 -41.3252 -41.3252
   -41.2856 -41.2856 -41.2854 -41.2854 -41.1967 -41.1967 -41.1929 -41.1929
   -41.1402 -41.1402 -41.1106 -41.1106 -41.1039 -41.1039 -41.1039 -41.1039
   -10.7840 -10.7840 -10.5080 -10.5080  -9.8785  -9.8785  -9.6430  -9.6430
    -9.3924  -9.3924  -9.2022  -9.2022  -9.1866  -9.1866  -9.1795  -9.1795
     1.3717   1.3717   1.4251   1.4251   2.9774   2.9774   3.0567   3.0567
     3.3844   3.3844   3.3950   3.3950   3.6811   3.6811   3.7552   3.7552
     4.0061   4.0061   4.0332   4.0332   4.1047   4.1047   4.5998   4.5998
     4.9661   4.9661   5.0665   5.0665   5.5462   5.5462   5.6153   5.6153
     5.8140   5.8140   5.8342   5.8342   5.9912   5.9912   6.0628   6.0628
     6.2042   6.2042   6.4484   6.4484   6.5636   6.5636   6.9864   6.9864
     9.9267   9.9267  10.1309  10.1309  10.3165  10.3165  10.4407  10.4407
    10.5450  10.5450  10.6718  10.6718  10.9424  10.9424  10.9673  10.9673
    11.0122  11.0122  11.1221  11.1221  11.1609  11.1609  11.3722  11.3722
    11.9336  11.9336  11.9403  11.9403  11.9806  11.9806  12.1131  12.1131
    12.2175  12.2175  12.3885  12.3885  12.5228  12.5228  12.6136  12.6136
    14.3485  14.3485  15.1841  15.1841  15.7959  15.7959  15.9199  15.9199

          k =-0.4887 0.0000-0.3895 ( 15436 PWs)   bands (ev):

   -75.1410 -75.1410 -75.1410 -75.1410 -75.0598 -75.0598 -75.0598 -75.0598
   -41.4646 -41.4646 -41.4646 -41.4646 -41.3295 -41.3295 -41.3293 -41.3293
   -41.2856 -41.2856 -41.2853 -41.2853 -41.1948 -41.1948 -41.1946 -41.1946
   -41.1257 -41.1257 -41.1257 -41.1257 -41.1039 -41.1039 -41.1039 -41.1039
   -10.6498 -10.6498 -10.6135 -10.6135  -9.7692  -9.7692  -9.7634  -9.7634
    -9.3768  -9.3768  -9.3019  -9.3019  -9.1702  -9.1702  -9.1577  -9.1577
     1.5021   1.5021   1.5328   1.5328   3.1042   3.1042   3.3110   3.3110
     3.4399   3.4399   3.5261   3.5261   3.5714   3.5714   3.7328   3.7328
     3.9486   3.9486   4.0141   4.0141   4.2646   4.2646   4.3079   4.3079
     4.6377   4.6377   5.0221   5.0221   5.5205   5.5205   5.5284   5.5284
     5.7658   5.7658   5.8543   5.8543   6.1045   6.1045   6.1561   6.1561
     6.2232   6.2232   6.3018   6.3018   6.4322   6.4322   6.6318   6.6318
    10.2150  10.2150  10.2365  10.2365  10.3916  10.3916  10.4011  10.4011
    10.6911  10.6911  10.7132  10.7132  10.8544  10.8544  10.8779  10.8779
    10.9637  10.9637  11.0443  11.0443  11.1183  11.1183  11.2123  11.2123
    11.6733  11.6733  11.7081  11.7081  11.9457  11.9457  12.0446  12.0446
    12.2403  12.2403  12.3374  12.3374  12.4763  12.4763  12.7799  12.7799
    15.3755  15.3755  15.5108  15.5109  16.1953  16.1954  16.2763  16.2764

     the Fermi energy is    10.4923 ev

!    total energy              =   -3488.69577872 Ry

     total all-electron energy =    -25094.001746 Ry
     estimated scf accuracy    <       0.00000004 Ry
     smearing contrib. (-TS)   =      -0.01071412 Ry
     internal energy E=F+TS    =   -3488.68506460 Ry

     The total energy is F=E-TS. E is the sum of the following terms:
     one-electron contribution =   -1487.99726877 Ry
     hartree contribution      =     870.76396111 Ry
     xc contribution           =    -368.36746312 Ry
     ewald contribution        =   -1545.33167547 Ry
     one-center paw contrib.   =    -957.75261834 Ry

     total magnetization       =    32.00 Bohr mag/cell
     absolute magnetization    =    32.09 Bohr mag/cell

     convergence has been achieved in  19 iterations

     negative rho (up, down):  0.000E+00 3.029E-03

     Forces acting on atoms (cartesian axes, Ry/au):

     atom    1 type  1   force =     0.00000000   -0.00000000   -0.00000000
     atom    2 type  1   force =     0.00000000    0.00000000    0.00000000
     atom    3 type  1   force =     0.00000000    0.00000000   -0.00000000
     atom    4 type  1   force =    -0.00000000   -0.00000000   -0.00000000
     atom    5 type  1   force =     0.00441795   -0.00189534    0.00000000
     atom    6 type  1   force =    -0.00441795    0.00189534    0.00000000
     atom    7 type  1   force =     0.00441795    0.00189534   -0.00000000
     atom    8 type  1   force =    -0.00441795   -0.00189534    0.00000000
     atom    9 type  2   force =    -0.00149269   -0.00696790    0.00000000
     atom   10 type  2   force =     0.00149269    0.00696790    0.00000000
     atom   11 type  2   force =    -0.00149269    0.00696790    0.00000000
     atom   12 type  2   force =     0.00149269   -0.00696790    0.00000000
     atom   13 type  3   force =    -0.00118645    0.00649985    0.00000000
     atom   14 type  3   force =     0.00118645   -0.00649985    0.00000000
     atom   15 type  3   force =    -0.00118645   -0.00649985    0.00000000
     atom   16 type  3   force =     0.00118645    0.00649985    0.00000000
     atom   17 type  3   force =     0.00209509   -0.00641087    0.00000000
     atom   18 type  3   force =    -0.00209509    0.00641087    0.00000000
     atom   19 type  3   force =     0.00209509    0.00641087    0.00000000
     atom   20 type  3   force =    -0.00209509   -0.00641087   -0.00000000
     atom   21 type  3   force =    -0.00410297   -0.00139561   -0.00191807
     atom   22 type  3   force =     0.00410297    0.00139561    0.00191807
     atom   23 type  3   force =    -0.00410297    0.00139561    0.00191807
     atom   24 type  3   force =     0.00410297   -0.00139561   -0.00191807
     atom   25 type  3   force =     0.00410297    0.00139561   -0.00191807
     atom   26 type  3   force =    -0.00410297   -0.00139561    0.00191807
     atom   27 type  3   force =     0.00410297   -0.00139561    0.00191807
     atom   28 type  3   force =    -0.00410297    0.00139561   -0.00191807

     Total force =     0.028841     Total SCF correction =     0.000201


     Computing stress (Cartesian axis) and pressure


     negative rho (up, down):  0.000E+00 3.029E-03
          total   stress  (Ry/bohr**3)                   (kbar)     P=       -3.86
   0.00003294   0.00000000   0.00000000            4.85        0.00        0.00
   0.00000000  -0.00002178   0.00000000            0.00       -3.20        0.00
   0.00000000   0.00000000  -0.00008980            0.00        0.00      -13.21

     Energy error            =      5.0E-03
     Gradient error          =      7.0E-03
     Cell gradient error     =      9.0E-05


     number of scf cycles    =   6
     number of bfgs steps    =   5

     enthalpy old            =   -3488.6907858357 Ry
     enthalpy new            =   -3488.6957787206 Ry

     CASE: enthalpy_new < enthalpy_old

     new trust radius        =       0.0385861643 bohr
     new conv_thr            =       0.0000000697 Ry

     new unit-cell volume =   2094.38904 a.u.^3 (   310.35643 Ang^3 )
     density =      4.36105 g/cm^3

CELL_PARAMETERS (angstrom)
   4.876103087   0.000000000   0.000000000
   0.000000000  10.472839419   0.000000000
   0.000000000   0.000000000   6.077478504

ATOMIC_POSITIONS (angstrom)
Fe            0.0000000000       -0.0000000000        0.0000000000
Fe            2.4380515436        5.2364197097       -0.0000000000
Fe           -0.0000000000        0.0000000000        3.0387392519
Fe            2.4380515436        5.2364197097        3.0387392519
Fe            0.1085231500        2.9097905680        4.5581088779
Fe            4.7675799372        7.5630488513        1.5193696260
Fe            2.5465746937        2.3266291416        1.5193696260
Fe            2.3295283936        8.1462102777        4.5581088779
Si            0.3676027668        4.2617720999        1.5193696260
Si            4.5085003205        6.2110673194        4.5581088779
Si            2.8056543104        0.9746476098        4.5581088779
Si            2.0704487769        9.4981918096        1.5193696260
O             1.1681793261        0.9611072051        4.5581088779
O             3.7079237612        9.5117322143        1.5193696260
O             3.6062308697        4.2753125046        1.5193696260
O             1.2698722175        6.1975269147        4.5581088779
O             1.4294353098        0.5640547345        1.5193696260
O             3.4466677775        9.9087846848        4.5581088779
O             3.8674868534        4.6723649752        4.5581088779
O             1.0086162339        5.8004744442        1.5193696260
O             1.0580759650        3.5195698315        2.8324005212
O             3.8180271222        6.9532695879        3.2450779827
O             3.4961275086        1.7168498782        3.2450779827
O             1.3799755786        8.7559895411        2.8324005212
O             3.8180271222        6.9532695879        5.8711397731
O             1.0580759650        3.5195698315        0.2063387308
O             1.3799755786        8.7559895411        0.2063387308
O             3.4961275086        1.7168498782        5.8711397731



     Writing output data file ./out/oliv.save/
     NEW-OLD atomic charge density approx. for the potential

     Check: negative core charge=   -0.000002

     negative rho (up, down):  0.000E+00 3.155E-03
     extrapolated charge  239.85014, renormalised to  240.00000
     Generating pointlists ...

     total cpu time spent up to now is    10634.3 secs

     Self-consistent Calculation

     iteration #  1     ecut=    60.00 Ry     beta= 0.30
     Davidson diagonalization with overlap
     ethr =  1.00E-06,  avg # of iterations = 11.8

     negative rho (up, down):  0.000E+00 3.145E-03

     total cpu time spent up to now is    10867.0 secs

     total energy              =   -3488.69579608 Ry
     estimated scf accuracy    <       0.00300754 Ry

     total magnetization       =    32.00 Bohr mag/cell
     absolute magnetization    =    32.09 Bohr mag/cell

     iteration #  2     ecut=    60.00 Ry     beta= 0.30
     Davidson diagonalization with overlap
     ethr =  1.25E-06,  avg # of iterations =  4.0

     negative rho (up, down):  0.000E+00 3.162E-03

     total cpu time spent up to now is    10933.4 secs

     total energy              =   -3488.69651194 Ry
     estimated scf accuracy    <       0.01465273 Ry

     total magnetization       =    32.00 Bohr mag/cell
     absolute magnetization    =    32.09 Bohr mag/cell

     iteration #  3     ecut=    60.00 Ry     beta= 0.30
     Davidson diagonalization with overlap
     ethr =  1.25E-06,  avg # of iterations =  2.0

     negative rho (up, down):  0.000E+00 3.172E-03

     total cpu time spent up to now is    10978.2 secs

     total energy              =   -3488.69700237 Ry
     estimated scf accuracy    <       0.01528464 Ry

     total magnetization       =    32.00 Bohr mag/cell
     absolute magnetization    =    32.09 Bohr mag/cell

     iteration #  4     ecut=    60.00 Ry     beta= 0.30
     Davidson diagonalization with overlap
     ethr =  1.25E-06,  avg # of iterations =  1.5

     negative rho (up, down):  0.000E+00 3.195E-03

     total cpu time spent up to now is    11020.4 secs

     total energy              =   -3488.69745355 Ry
     estimated scf accuracy    <       0.00076321 Ry

     total magnetization       =    32.00 Bohr mag/cell
     absolute magnetization    =    32.09 Bohr mag/cell

     iteration #  5     ecut=    60.00 Ry     beta= 0.30
     Davidson diagonalization with overlap
     ethr =  3.18E-07,  avg # of iterations =  2.4

     negative rho (up, down):  0.000E+00 3.213E-03

     total cpu time spent up to now is    11067.8 secs

     total energy              =   -3488.69769775 Ry
     estimated scf accuracy    <       0.00033467 Ry

     total magnetization       =    32.00 Bohr mag/cell
     absolute magnetization    =    32.09 Bohr mag/cell

     iteration #  6     ecut=    60.00 Ry     beta= 0.30
     Davidson diagonalization with overlap
     ethr =  1.39E-07,  avg # of iterations =  3.2

     negative rho (up, down):  0.000E+00 3.210E-03

     total cpu time spent up to now is    11120.9 secs

     total energy              =   -3488.69774455 Ry
     estimated scf accuracy    <       0.00010619 Ry

     total magnetization       =    32.00 Bohr mag/cell
     absolute magnetization    =    32.09 Bohr mag/cell

     iteration #  7     ecut=    60.00 Ry     beta= 0.30
     Davidson diagonalization with overlap
     ethr =  4.42E-08,  avg # of iterations =  2.4

     negative rho (up, down):  0.000E+00 3.214E-03

     total cpu time spent up to now is    11178.5 secs

     total energy              =   -3488.69779271 Ry
     estimated scf accuracy    <       0.00003180 Ry

     total magnetization       =    32.00 Bohr mag/cell
     absolute magnetization    =    32.09 Bohr mag/cell

     iteration #  8     ecut=    60.00 Ry     beta= 0.30
     Davidson diagonalization with overlap
     ethr =  1.32E-08,  avg # of iterations =  5.0

     negative rho (up, down):  0.000E+00 3.217E-03

     total cpu time spent up to now is    11259.3 secs

     total energy              =   -3488.69779670 Ry
     estimated scf accuracy    <       0.00010044 Ry

     total magnetization       =    32.00 Bohr mag/cell
     absolute magnetization    =    32.09 Bohr mag/cell

     iteration #  9     ecut=    60.00 Ry     beta= 0.30
     Davidson diagonalization with overlap
     ethr =  1.32E-08,  avg # of iterations =  2.0

     negative rho (up, down):  0.000E+00 3.221E-03

     total cpu time spent up to now is    11306.5 secs

     total energy              =   -3488.69778346 Ry
     estimated scf accuracy    <       0.00003725 Ry

     total magnetization       =    32.00 Bohr mag/cell
     absolute magnetization    =    32.09 Bohr mag/cell

     iteration # 10     ecut=    60.00 Ry     beta= 0.30
     Davidson diagonalization with overlap
     ethr =  1.32E-08,  avg # of iterations =  4.5

     negative rho (up, down):  0.000E+00 3.220E-03

     total cpu time spent up to now is    11376.1 secs

     total energy              =   -3488.69779578 Ry
     estimated scf accuracy    <       0.00000713 Ry

     total magnetization       =    32.00 Bohr mag/cell
     absolute magnetization    =    32.09 Bohr mag/cell

     iteration # 11     ecut=    60.00 Ry     beta= 0.30
     Davidson diagonalization with overlap
     ethr =  2.97E-09,  avg # of iterations =  2.5

     negative rho (up, down):  0.000E+00 3.220E-03

     total cpu time spent up to now is    11429.9 secs

     total energy              =   -3488.69779899 Ry
     estimated scf accuracy    <       0.00000252 Ry

     total magnetization       =    32.00 Bohr mag/cell
     absolute magnetization    =    32.09 Bohr mag/cell

     iteration # 12     ecut=    60.00 Ry     beta= 0.30
     Davidson diagonalization with overlap
     ethr =  1.05E-09,  avg # of iterations =  6.4

     negative rho (up, down):  0.000E+00 3.220E-03

     total cpu time spent up to now is    11542.6 secs

     total energy              =   -3488.69780384 Ry
     estimated scf accuracy    <       0.00001480 Ry

     total magnetization       =    32.00 Bohr mag/cell
     absolute magnetization    =    32.09 Bohr mag/cell

     iteration # 13     ecut=    60.00 Ry     beta= 0.30
     Davidson diagonalization with overlap
     ethr =  1.05E-09,  avg # of iterations =  2.0

     negative rho (up, down):  0.000E+00 3.221E-03

     total cpu time spent up to now is    11590.8 secs

     total energy              =   -3488.69780203 Ry
     estimated scf accuracy    <       0.00001228 Ry

     total magnetization       =    32.00 Bohr mag/cell
     absolute magnetization    =    32.09 Bohr mag/cell

     iteration # 14     ecut=    60.00 Ry     beta= 0.30
     Davidson diagonalization with overlap
     ethr =  1.05E-09,  avg # of iterations =  2.0

     negative rho (up, down):  0.000E+00 3.221E-03

     total cpu time spent up to now is    11640.9 secs

     total energy              =   -3488.69780112 Ry
     estimated scf accuracy    <       0.00000607 Ry

     total magnetization       =    32.00 Bohr mag/cell
     absolute magnetization    =    32.09 Bohr mag/cell

     iteration # 15     ecut=    60.00 Ry     beta= 0.30
     Davidson diagonalization with overlap
     ethr =  1.05E-09,  avg # of iterations =  5.1

     negative rho (up, down):  0.000E+00 3.221E-03

     total cpu time spent up to now is    11707.8 secs

     total energy              =   -3488.69780204 Ry
     estimated scf accuracy    <       0.00000094 Ry

     total magnetization       =    32.00 Bohr mag/cell
     absolute magnetization    =    32.09 Bohr mag/cell

     iteration # 16     ecut=    60.00 Ry     beta= 0.30
     Davidson diagonalization with overlap
     ethr =  3.93E-10,  avg # of iterations =  4.4

     negative rho (up, down):  0.000E+00 3.221E-03

     Magnetic moment per site:
     atom:    1    charge:   13.3649    magn:    3.3253    constr:    0.0000
     atom:    2    charge:   13.3649    magn:    3.3253    constr:    0.0000
     atom:    3    charge:   13.3649    magn:    3.3253    constr:    0.0000
     atom:    4    charge:   13.3649    magn:    3.3253    constr:    0.0000
     atom:    5    charge:   13.3274    magn:    3.4083    constr:    0.0000
     atom:    6    charge:   13.3274    magn:    3.4083    constr:    0.0000
     atom:    7    charge:   13.3274    magn:    3.4083    constr:    0.0000
     atom:    8    charge:   13.3274    magn:    3.4083    constr:    0.0000
     atom:    9    charge:    0.3872    magn:    0.0041    constr:    0.0000
     atom:   10    charge:    0.3872    magn:    0.0041    constr:    0.0000
     atom:   11    charge:    0.3872    magn:    0.0041    constr:    0.0000
     atom:   12    charge:    0.3872    magn:    0.0041    constr:    0.0000
     atom:   13    charge:    4.0285    magn:    0.1045    constr:    0.0000
     atom:   14    charge:    4.0285    magn:    0.1045    constr:    0.0000
     atom:   15    charge:    4.0285    magn:    0.1045    constr:    0.0000
     atom:   16    charge:    4.0285    magn:    0.1045    constr:    0.0000
     atom:   17    charge:    4.0223    magn:    0.1189    constr:    0.0000
     atom:   18    charge:    4.0223    magn:    0.1189    constr:    0.0000
     atom:   19    charge:    4.0223    magn:    0.1189    constr:    0.0000
     atom:   20    charge:    4.0223    magn:    0.1189    constr:    0.0000
     atom:   21    charge:    4.0176    magn:    0.1196    constr:    0.0000
     atom:   22    charge:    4.0176    magn:    0.1196    constr:    0.0000
     atom:   23    charge:    4.0176    magn:    0.1196    constr:    0.0000
     atom:   24    charge:    4.0176    magn:    0.1196    constr:    0.0000
     atom:   25    charge:    4.0176    magn:    0.1196    constr:    0.0000
     atom:   26    charge:    4.0176    magn:    0.1196    constr:    0.0000
     atom:   27    charge:    4.0176    magn:    0.1196    constr:    0.0000
     atom:   28    charge:    4.0176    magn:    0.1196    constr:    0.0000

     total cpu time spent up to now is    11768.7 secs

     End of self-consistent calculation

 ------ SPIN UP ------------


          k = 0.0000 0.0000 0.0000 ( 15339 PWs)   bands (ev):

   -79.3597 -79.3597 -79.3597 -79.3596 -79.1430 -79.1429 -79.1411 -79.1411
   -46.0375 -46.0375 -46.0363 -46.0362 -45.6380 -45.6380 -45.6317 -45.6317
   -45.2902 -45.2902 -45.2900 -45.2900 -45.1078 -45.1077 -45.1052 -45.1052
   -44.8855 -44.8855 -44.8848 -44.8847 -44.8781 -44.8780 -44.8520 -44.8519
   -11.3691 -11.1570 -10.8850 -10.7534  -9.7607  -9.7571  -9.7064  -9.6691
    -9.6585  -9.5464  -9.5317  -9.4799  -9.4720  -9.4402  -9.4058  -9.3339
     1.0329   1.0439   1.5320   1.5656   1.6352   1.6853   2.3050   2.3227
     2.3240   2.7800   2.9004   2.9951   3.0921   3.6029   3.7113   3.7381
     3.9824   4.0606   4.0681   4.0739   4.2409   4.3543   4.3697   4.3816
     4.3934   4.4732   4.5358   4.5597   4.6271   4.6612   4.7160   4.7755
     4.8187   4.9040   4.9205   4.9708   5.2053   5.2093   5.2831   5.2904
     5.3960   5.6677   5.9333   5.9719   5.9803   6.1404   6.1697   6.3181
     6.7216   6.9729   7.0085   7.0249   7.0671   7.1303   7.1510   7.3264
     7.3299   7.3579   7.3995   7.4784   7.5023   7.5061   7.8017   7.8229
     7.8554   7.9275   7.9848   8.0087   8.0189   8.0346   8.0491   8.1773
     8.2691   8.2945   8.3262   8.3707   8.6523   8.6895   8.8373   8.9645
     8.9910   9.0091   9.1647   9.2080   9.2669   9.3464   9.4197   9.6241
    11.3415  13.3801  13.9154  15.2651  15.8326  16.1180  16.2561  16.3306

          k = 0.0000 0.0000-0.3911 ( 15392 PWs)   bands (ev):

   -79.3597 -79.3597 -79.3597 -79.3597 -79.1420 -79.1420 -79.1420 -79.1420
   -46.0369 -46.0369 -46.0369 -46.0369 -45.6349 -45.6349 -45.6348 -45.6348
   -45.2901 -45.2901 -45.2901 -45.2901 -45.1065 -45.1065 -45.1064 -45.1064
   -44.8851 -44.8851 -44.8851 -44.8851 -44.8651 -44.8651 -44.8651 -44.8651
   -11.0850 -11.0850 -10.9941 -10.9941  -9.7553  -9.7553  -9.7051  -9.7051
    -9.6655  -9.6655  -9.5087  -9.5087  -9.4290  -9.4290  -9.3465  -9.3465
     1.3177   1.3177   1.4018   1.4018   2.0339   2.0339   2.1087   2.1087
     2.7309   2.7309   3.1720   3.1720   3.4475   3.4475   3.6733   3.6733
     3.7424   3.7424   3.9604   3.9604   4.1270   4.1270   4.3221   4.3221
     4.4149   4.4149   4.4544   4.4544   4.7017   4.7017   4.7606   4.7606
     4.8221   4.8221   5.0540   5.0540   5.1022   5.1022   5.4336   5.4336
     5.5712   5.5712   5.6548   5.6548   5.7906   5.7906   5.8724   5.8724
     7.0179   7.0179   7.0359   7.0359   7.1651   7.1651   7.1950   7.1950
     7.4813   7.4813   7.4927   7.4927   7.5644   7.5644   7.7191   7.7191
     7.9664   7.9664   8.0018   8.0018   8.0670   8.0670   8.1314   8.1314
     8.3552   8.3552   8.4768   8.4768   8.7043   8.7043   8.7067   8.7067
     8.8725   8.8725   8.9241   8.9241   9.1854   9.1854   9.4393   9.4393
    13.2628  13.2628  14.4206  14.4206  15.1457  15.1457  16.6344  16.6345

          k =-0.4875 0.0000 0.0000 ( 15374 PWs)   bands (ev):

   -79.3597 -79.3597 -79.3597 -79.3597 -79.1430 -79.1430 -79.1411 -79.1411
   -46.0369 -46.0369 -46.0369 -46.0369 -45.6380 -45.6380 -45.6317 -45.6317
   -45.2901 -45.2901 -45.2901 -45.2901 -45.1077 -45.1077 -45.1052 -45.1052
   -44.8852 -44.8852 -44.8851 -44.8851 -44.8781 -44.8781 -44.8520 -44.8520
   -10.9920 -10.9920 -10.7172 -10.7172 -10.0835 -10.0835  -9.8485  -9.8485
    -9.6387  -9.6387  -9.4441  -9.4441  -9.4266  -9.4266  -9.4235  -9.4235
     1.0827   1.0827   1.1877   1.1877   2.6559   2.6559   2.7532   2.7532
     2.9503   2.9503   2.9997   2.9997   3.2742   3.2742   3.3280   3.3280
     3.5334   3.5334   3.5873   3.5873   3.7230   3.7230   4.2545   4.2545
     4.3509   4.3509   4.4017   4.4017   4.8233   4.8233   4.8649   4.8649
     4.9702   4.9702   5.0562   5.0562   5.2236   5.2236   5.5348   5.5348
     5.6073   5.6073   5.8043   5.8043   6.0122   6.0122   6.6115   6.6115
     6.9587   6.9587   7.0216   7.0216   7.1043   7.1043   7.2077   7.2077
     7.2874   7.2874   7.2924   7.2924   7.4853   7.4853   7.7161   7.7161
     7.8316   7.8316   8.0191   8.0191   8.0511   8.0511   8.1747   8.1747
     8.5201   8.5201   8.6800   8.6800   8.7037   8.7037   8.7891   8.7891
     8.9268   8.9268   9.0159   9.0159   9.1947   9.1947   9.3435   9.3435
    13.9181  13.9181  14.8430  14.8430  15.2182  15.2182  15.3694  15.3694

          k =-0.4875 0.0000-0.3911 ( 15436 PWs)   bands (ev):

   -79.3597 -79.3597 -79.3597 -79.3597 -79.1421 -79.1421 -79.1421 -79.1421
   -46.0370 -46.0370 -46.0369 -46.0369 -45.6349 -45.6349 -45.6349 -45.6349
   -45.2901 -45.2901 -45.2901 -45.2901 -45.1065 -45.1065 -45.1064 -45.1064
   -44.8851 -44.8851 -44.8851 -44.8851 -44.8651 -44.8651 -44.8651 -44.8651
   -10.8561 -10.8561 -10.8209 -10.8209  -9.9729  -9.9729  -9.9684  -9.9684
    -9.6256  -9.6256  -9.5473  -9.5473  -9.4164  -9.4164  -9.3960  -9.3960
     1.2428   1.2428   1.2455   1.2455   2.7080   2.7080   2.8918   2.8918
     3.0676   3.0676   3.1223   3.1223   3.1849   3.1849   3.3858   3.3858
     3.5167   3.5167   3.6105   3.6105   3.7271   3.7271   3.8199   3.8199
     4.2238   4.2238   4.5527   4.5527   4.9811   4.9811   5.0391   5.0391
     5.1055   5.1055   5.2032   5.2032   5.2612   5.2612   5.3006   5.3006
     5.4697   5.4697   5.5738   5.5738   5.8831   5.8831   6.0433   6.0433
     6.9940   6.9940   7.1071   7.1071   7.2555   7.2555   7.2676   7.2676
     7.2724   7.2724   7.4426   7.4426   7.6559   7.6559   7.6765   7.6765
     7.7403   7.7403   7.8888   7.8888   7.9456   7.9456   8.0622   8.0622
     8.3774   8.3774   8.4040   8.4040   8.4060   8.4060   8.7903   8.7903
     9.0115   9.0115   9.0436   9.0436   9.1538   9.1538   9.5388   9.5388
    14.9544  14.9545  14.9904  14.9906  15.7374  15.7416  15.7594  15.8018

 ------ SPIN DOWN ----------


          k = 0.0000 0.0000 0.0000 ( 15339 PWs)   bands (ev):

   -75.1444 -75.1443 -75.1442 -75.1441 -75.0575 -75.0573 -75.0554 -75.0554
   -41.4683 -41.4682 -41.4663 -41.4663 -41.3284 -41.3284 -41.3197 -41.3197
   -41.2810 -41.2808 -41.2803 -41.2802 -41.1973 -41.1969 -41.1932 -41.1931
   -41.1362 -41.1361 -41.1161 -41.1161 -41.1152 -41.1150 -41.1049 -41.1049
   -11.1533 -10.9445 -10.6718 -10.5424  -9.5401  -9.5219  -9.4742  -9.4358
    -9.4282  -9.2973  -9.2871  -9.2261  -9.2239  -9.1886  -9.1508  -9.0822
     1.2875   1.3112   1.7821   1.8411   1.8747   2.0465   2.6582   2.6806
     2.7398   3.1694   3.2788   3.3032   3.4811   4.0332   4.0409   4.0413
     4.4270   4.5926   4.7239   4.7578   4.8169   4.9004   4.9127   4.9594
     4.9785   5.1218   5.1452   5.1709   5.3007   5.3040   5.4844   5.4847
     5.5495   5.5813   5.7003   5.7054   5.7634   5.7788   5.7892   5.9470
     6.2275   6.3319   6.3649   6.4618   6.5907   6.6080   6.6737   6.8638
     9.9054   9.9344  10.1616  10.1850  10.2752  10.3662  10.3824  10.3895
    10.4195  10.5316  10.6028  10.8281  10.9086  10.9102  10.9196  10.9337
    10.9505  11.0472  11.0477  11.1638  11.1646  11.1837  11.3502  11.3529
    11.7948  11.8339  11.9222  11.9479  11.9951  12.1282  12.2072  12.2381
    12.2644  12.2952  12.3324  12.3794  12.4300  12.4700  12.5250  12.7683
    12.7806  13.9630  14.4411  15.7270  16.1941  16.6309  16.6838  16.7254

          k = 0.0000 0.0000-0.3911 ( 15392 PWs)   bands (ev):

   -75.1443 -75.1443 -75.1443 -75.1443 -75.0565 -75.0565 -75.0565 -75.0565
   -41.4674 -41.4674 -41.4673 -41.4673 -41.3240 -41.3240 -41.3239 -41.3239
   -41.2807 -41.2807 -41.2805 -41.2805 -41.1951 -41.1951 -41.1950 -41.1950
   -41.1211 -41.1211 -41.1208 -41.1208 -41.1157 -41.1157 -41.1153 -41.1153
   -10.8707 -10.8707 -10.7821 -10.7821  -9.5156  -9.5156  -9.4797  -9.4797
    -9.4297  -9.4297  -9.2609  -9.2609  -9.1772  -9.1772  -9.0946  -9.0946
     1.5752   1.5752   1.6479   1.6479   2.4041   2.4041   2.4530   2.4530
     3.0974   3.0974   3.5122   3.5122   3.8162   3.8162   4.0415   4.0415
     4.2635   4.2635   4.5117   4.5117   4.7387   4.7387   4.8662   4.8662
     4.9363   4.9363   5.1212   5.1212   5.3402   5.3402   5.3630   5.3630
     5.6245   5.6245   5.7641   5.7641   5.8103   5.8103   6.0020   6.0020
     6.0273   6.0273   6.1345   6.1345   6.5307   6.5307   6.6342   6.6342
    10.2867  10.2867  10.3365  10.3365  10.3718  10.3718  10.3844  10.3844
    10.5807  10.5807  10.6729  10.6729  10.8344  10.8344  10.8570  10.8570
    10.9468  10.9468  11.0093  11.0093  11.1484  11.1484  11.2680  11.2680
    11.7196  11.7196  11.8491  11.8491  12.1536  12.1536  12.1881  12.1881
    12.3018  12.3018  12.3515  12.3515  12.5590  12.5590  12.6242  12.6242
    13.8670  13.8670  14.9303  14.9303  15.6585  15.6585  16.9739  16.9739

          k =-0.4875 0.0000 0.0000 ( 15374 PWs)   bands (ev):

   -75.1443 -75.1443 -75.1442 -75.1442 -75.0575 -75.0575 -75.0554 -75.0554
   -41.4673 -41.4673 -41.4673 -41.4673 -41.3285 -41.3285 -41.3197 -41.3197
   -41.2807 -41.2807 -41.2804 -41.2804 -41.1972 -41.1972 -41.1931 -41.1931
   -41.1362 -41.1362 -41.1156 -41.1156 -41.1156 -41.1156 -41.1049 -41.1049
   -10.7800 -10.7800 -10.4972 -10.4972  -9.8592  -9.8592  -9.6251  -9.6251
    -9.3898  -9.3898  -9.1914  -9.1914  -9.1784  -9.1784  -9.1771  -9.1771
     1.3749   1.3749   1.4212   1.4212   2.9841   2.9841   3.0643   3.0643
     3.3851   3.3851   3.4033   3.4033   3.6993   3.6993   3.7638   3.7638
     3.9937   3.9937   4.0353   4.0353   4.1157   4.1157   4.6192   4.6192
     4.9749   4.9749   5.0569   5.0569   5.5620   5.5620   5.6203   5.6203
     5.8013   5.8013   5.8526   5.8526   6.0107   6.0107   6.0750   6.0750
     6.2380   6.2380   6.4372   6.4372   6.5750   6.5750   7.0155   7.0155
     9.9046   9.9046  10.1201  10.1201  10.3153  10.3153  10.4387  10.4387
    10.5478  10.5478  10.6668  10.6668  10.9575  10.9575  10.9749  10.9749
    11.0278  11.0278  11.1293  11.1293  11.1565  11.1565  11.3957  11.3957
    11.9201  11.9201  11.9457  11.9457  11.9889  11.9889  12.1197  12.1197
    12.2061  12.2061  12.3958  12.3958  12.4918  12.4918  12.6234  12.6234
    14.3707  14.3707  15.1919  15.1919  15.7830  15.7830  15.9526  15.9526

          k =-0.4875 0.0000-0.3911 ( 15436 PWs)   bands (ev):

   -75.1444 -75.1444 -75.1443 -75.1443 -75.0565 -75.0565 -75.0565 -75.0565
   -41.4674 -41.4674 -41.4673 -41.4673 -41.3240 -41.3240 -41.3239 -41.3239
   -41.2807 -41.2807 -41.2804 -41.2804 -41.1951 -41.1951 -41.1950 -41.1950
   -41.1211 -41.1211 -41.1208 -41.1208 -41.1156 -41.1156 -41.1153 -41.1153
   -10.6410 -10.6410 -10.6057 -10.6057  -9.7500  -9.7500  -9.7429  -9.7429
    -9.3763  -9.3763  -9.2986  -9.2986  -9.1647  -9.1647  -9.1491  -9.1491
     1.5053   1.5053   1.5365   1.5365   3.1152   3.1152   3.3086   3.3086
     3.4373   3.4373   3.5264   3.5264   3.5821   3.5821   3.7262   3.7262
     3.9698   3.9698   4.0280   4.0280   4.2780   4.2780   4.3223   4.3223
     4.6529   4.6529   5.0372   5.0372   5.5232   5.5232   5.5307   5.5307
     5.7845   5.7845   5.8624   5.8624   6.1116   6.1116   6.1597   6.1597
     6.2266   6.2266   6.3021   6.3021   6.4471   6.4471   6.6445   6.6445
    10.2075  10.2075  10.2263  10.2263  10.3960  10.3960  10.4051  10.4051
    10.6898  10.6898  10.7076  10.7076  10.8573  10.8573  10.8795  10.8795
    10.9788  10.9788  11.0623  11.0623  11.1209  11.1209  11.2174  11.2174
    11.6680  11.6680  11.7069  11.7069  11.9461  11.9461  12.0396  12.0396
    12.2185  12.2185  12.3293  12.3293  12.4782  12.4782  12.7849  12.7849
    15.4055  15.4055  15.5079  15.5079  16.2281  16.2283  16.2565  16.2566

     the Fermi energy is    10.4917 ev

!    total energy              =   -3488.69780248 Ry

     total all-electron energy =    -25094.003770 Ry
     estimated scf accuracy    <       0.00000006 Ry
     smearing contrib. (-TS)   =      -0.01084581 Ry
     internal energy E=F+TS    =   -3488.68695667 Ry

     The total energy is F=E-TS. E is the sum of the following terms:
     one-electron contribution =   -1485.98687596 Ry
     hartree contribution      =     869.79681221 Ry
     xc contribution           =    -368.36656814 Ry
     ewald contribution        =   -1546.37764243 Ry
     one-center paw contrib.   =    -957.75268236 Ry

     total magnetization       =    32.00 Bohr mag/cell
     absolute magnetization    =    32.09 Bohr mag/cell

     convergence has been achieved in  16 iterations

     negative rho (up, down):  0.000E+00 3.221E-03

     Forces acting on atoms (cartesian axes, Ry/au):

     atom    1 type  1   force =     0.00000000    0.00000000   -0.00000000
     atom    2 type  1   force =     0.00000000    0.00000000    0.00000000
     atom    3 type  1   force =     0.00000000    0.00000000    0.00000000
     atom    4 type  1   force =     0.00000000    0.00000000    0.00000000
     atom    5 type  1   force =     0.00127053   -0.00197472   -0.00000000
     atom    6 type  1   force =    -0.00127053    0.00197472   -0.00000000
     atom    7 type  1   force =     0.00127053    0.00197472    0.00000000
     atom    8 type  1   force =    -0.00127053   -0.00197472    0.00000000
     atom    9 type  2   force =    -0.00266393   -0.00888337    0.00000000
     atom   10 type  2   force =     0.00266393    0.00888337    0.00000000
     atom   11 type  2   force =    -0.00266393    0.00888337    0.00000000
     atom   12 type  2   force =     0.00266393   -0.00888337    0.00000000
     atom   13 type  3   force =    -0.00300715    0.00300804    0.00000000
     atom   14 type  3   force =     0.00300715   -0.00300804    0.00000000
     atom   15 type  3   force =    -0.00300715   -0.00300804    0.00000000
     atom   16 type  3   force =     0.00300715    0.00300804    0.00000000
     atom   17 type  3   force =     0.00045032   -0.00688556   -0.00000000
     atom   18 type  3   force =    -0.00045032    0.00688556   -0.00000000
     atom   19 type  3   force =     0.00045032    0.00688556   -0.00000000
     atom   20 type  3   force =    -0.00045032   -0.00688556    0.00000000
     atom   21 type  3   force =    -0.00086100    0.00111130   -0.00375626
     atom   22 type  3   force =     0.00086100   -0.00111130    0.00375626
     atom   23 type  3   force =    -0.00086100   -0.00111130    0.00375626
     atom   24 type  3   force =     0.00086100    0.00111130   -0.00375626
     atom   25 type  3   force =     0.00086100   -0.00111130   -0.00375626
     atom   26 type  3   force =    -0.00086100    0.00111130    0.00375626
     atom   27 type  3   force =     0.00086100    0.00111130    0.00375626
     atom   28 type  3   force =    -0.00086100   -0.00111130   -0.00375626

     Total force =     0.027525     Total SCF correction =     0.000346


     Computing stress (Cartesian axis) and pressure


     negative rho (up, down):  0.000E+00 3.221E-03
          total   stress  (Ry/bohr**3)                   (kbar)     P=       -4.02
   0.00001867   0.00000000   0.00000000            2.75        0.00        0.00
   0.00000000  -0.00003949   0.00000000            0.00       -5.81        0.00
   0.00000000   0.00000000  -0.00006112            0.00        0.00       -8.99

     Energy error            =      2.0E-03
     Gradient error          =      8.9E-03
     Cell gradient error     =      6.1E-05


     number of scf cycles    =   7
     number of bfgs steps    =   6

     enthalpy old            =   -3488.6957787206 Ry
     enthalpy new            =   -3488.6978024773 Ry

     CASE: enthalpy_new < enthalpy_old

     new trust radius        =       0.0332705718 bohr
     new conv_thr            =       0.0000000888 Ry

     new unit-cell volume =   2091.81142 a.u.^3 (   309.97447 Ang^3 )
     density =      4.36642 g/cm^3

CELL_PARAMETERS (angstrom)
   4.888435811   0.000000000   0.000000000
   0.000000000  10.471625610   0.000000000
   0.000000000   0.000000000   6.055387013

ATOMIC_POSITIONS (angstrom)
Fe            0.0000000000       -0.0000000000        0.0000000000
Fe            2.4442179054        5.2358128049       -0.0000000000
Fe           -0.0000000000        0.0000000000        3.0276935065
Fe            2.4442179054        5.2358128049        3.0276935065
Fe            0.1148547737        2.9072417398        4.5415402597
Fe            4.7735810371        7.5643838700        1.5138467532
Fe            2.5590726791        2.3285710651        1.5138467532
Fe            2.3293631317        8.1430545447        4.5415402597
Si            0.3640979915        4.2545627402        1.5138467532
Si            4.5243378193        6.2170628696        4.5415402597
Si            2.8083158969        0.9812500647        4.5415402597
Si            2.0801199139        9.4903755451        1.5138467532
O             1.1703816944        0.9714863936        4.5415402597
O             3.7180541164        9.5001392162        1.5138467532
O             3.6145995998        4.2643264113        1.5138467532
O             1.2738362110        6.2072991985        4.5415402597
O             1.4377136883        0.5564272058        1.5138467532
O             3.4507221225        9.9151984040        4.5415402597
O             3.8819315938        4.6793855991        4.5415402597
O             1.0065042171        5.7922400107        1.5138467532
O             1.0553051738        3.5138220631        2.8236353891
O             3.8331306371        6.9578035467        3.2317516238
O             3.4995230792        1.7219907418        3.2317516238
O             1.3889127317        8.7496348680        2.8236353891
O             3.8331306371        6.9578035467        5.8513288956
O             1.0553051738        3.5138220631        0.2040581174
O             1.3889127317        8.7496348680        0.2040581174
O             3.4995230792        1.7219907418        5.8513288956



     Writing output data file ./out/oliv.save/
     NEW-OLD atomic charge density approx. for the potential

     Check: negative core charge=   -0.000002

     negative rho (up, down):  0.000E+00 3.246E-03
     extrapolated charge  239.70427, renormalised to  240.00000
     Generating pointlists ...

     total cpu time spent up to now is    11821.9 secs

     Self-consistent Calculation

     iteration #  1     ecut=    60.00 Ry     beta= 0.30
     Davidson diagonalization with overlap
     ethr =  1.00E-06,  avg # of iterations = 10.8

     negative rho (up, down):  0.000E+00 3.204E-03

     total cpu time spent up to now is    12030.2 secs

     total energy              =   -3488.69277551 Ry
     estimated scf accuracy    <       0.00755227 Ry

     total magnetization       =    32.00 Bohr mag/cell
     absolute magnetization    =    32.09 Bohr mag/cell

     iteration #  2     ecut=    60.00 Ry     beta= 0.30
     Davidson diagonalization with overlap
     ethr =  3.15E-06,  avg # of iterations =  4.2

     negative rho (up, down):  0.000E+00 3.213E-03

     total cpu time spent up to now is    12107.6 secs

     total energy              =   -3488.69751086 Ry
     estimated scf accuracy    <       0.01951649 Ry

     total magnetization       =    32.00 Bohr mag/cell
     absolute magnetization    =    32.10 Bohr mag/cell

     iteration #  3     ecut=    60.00 Ry     beta= 0.30
     Davidson diagonalization with overlap
     ethr =  3.15E-06,  avg # of iterations =  2.0

     negative rho (up, down):  0.000E+00 3.230E-03

     total cpu time spent up to now is    12153.1 secs

     total energy              =   -3488.69719156 Ry
     estimated scf accuracy    <       0.06421986 Ry

     total magnetization       =    32.00 Bohr mag/cell
     absolute magnetization    =    32.10 Bohr mag/cell

     iteration #  4     ecut=    60.00 Ry     beta= 0.30
     Davidson diagonalization with overlap
     ethr =  3.15E-06,  avg # of iterations =  1.2

     negative rho (up, down):  0.000E+00 3.242E-03

     total cpu time spent up to now is    12193.2 secs

     total energy              =   -3488.69881409 Ry
     estimated scf accuracy    <       0.00249080 Ry

     total magnetization       =    32.00 Bohr mag/cell
     absolute magnetization    =    32.09 Bohr mag/cell

     iteration #  5     ecut=    60.00 Ry     beta= 0.30
     Davidson diagonalization with overlap
     ethr =  1.04E-06,  avg # of iterations =  2.0

     negative rho (up, down):  0.000E+00 3.265E-03

     total cpu time spent up to now is    12238.9 secs

     total energy              =   -3488.69867700 Ry
     estimated scf accuracy    <       0.00071293 Ry

     total magnetization       =    32.00 Bohr mag/cell
     absolute magnetization    =    32.09 Bohr mag/cell

     iteration #  6     ecut=    60.00 Ry     beta= 0.30
     Davidson diagonalization with overlap
     ethr =  2.97E-07,  avg # of iterations =  4.6

     negative rho (up, down):  0.000E+00 3.264E-03

     total cpu time spent up to now is    12304.5 secs

     total energy              =   -3488.69900076 Ry
     estimated scf accuracy    <       0.00040649 Ry

     total magnetization       =    32.00 Bohr mag/cell
     absolute magnetization    =    32.09 Bohr mag/cell

     iteration #  7     ecut=    60.00 Ry     beta= 0.30
     Davidson diagonalization with overlap
     ethr =  1.69E-07,  avg # of iterations =  1.5

     negative rho (up, down):  0.000E+00 3.256E-03

     total cpu time spent up to now is    12346.6 secs

     total energy              =   -3488.69893571 Ry
     estimated scf accuracy    <       0.00016652 Ry

     total magnetization       =    32.00 Bohr mag/cell
     absolute magnetization    =    32.09 Bohr mag/cell

     iteration #  8     ecut=    60.00 Ry     beta= 0.30
     Davidson diagonalization with overlap
     ethr =  6.94E-08,  avg # of iterations =  5.4

     negative rho (up, down):  0.000E+00 3.260E-03

     total cpu time spent up to now is    12418.8 secs

     total energy              =   -3488.69901775 Ry
     estimated scf accuracy    <       0.00026139 Ry

     total magnetization       =    32.00 Bohr mag/cell
     absolute magnetization    =    32.09 Bohr mag/cell

     iteration #  9     ecut=    60.00 Ry     beta= 0.30
     Davidson diagonalization with overlap
     ethr =  6.94E-08,  avg # of iterations =  2.0

     negative rho (up, down):  0.000E+00 3.261E-03

     total cpu time spent up to now is    12462.8 secs

     total energy              =   -3488.69900782 Ry
     estimated scf accuracy    <       0.00012484 Ry

     total magnetization       =    32.00 Bohr mag/cell
     absolute magnetization    =    32.09 Bohr mag/cell

     iteration # 10     ecut=    60.00 Ry     beta= 0.30
     Davidson diagonalization with overlap
     ethr =  5.20E-08,  avg # of iterations =  2.0

     negative rho (up, down):  0.000E+00 3.264E-03

     total cpu time spent up to now is    12507.5 secs

     total energy              =   -3488.69899158 Ry
     estimated scf accuracy    <       0.00006149 Ry

     total magnetization       =    32.00 Bohr mag/cell
     absolute magnetization    =    32.09 Bohr mag/cell

     iteration # 11     ecut=    60.00 Ry     beta= 0.30
     Davidson diagonalization with overlap
     ethr =  2.56E-08,  avg # of iterations =  3.0

     negative rho (up, down):  0.000E+00 3.264E-03

     total cpu time spent up to now is    12560.6 secs

     total energy              =   -3488.69900447 Ry
     estimated scf accuracy    <       0.00000126 Ry

     total magnetization       =    32.00 Bohr mag/cell
     absolute magnetization    =    32.09 Bohr mag/cell

     iteration # 12     ecut=    60.00 Ry     beta= 0.30
     Davidson diagonalization with overlap
     ethr =  5.25E-10,  avg # of iterations =  6.6

     negative rho (up, down):  0.000E+00 3.264E-03

     total cpu time spent up to now is    12683.3 secs

     total energy              =   -3488.69900539 Ry
     estimated scf accuracy    <       0.00000520 Ry

     total magnetization       =    32.00 Bohr mag/cell
     absolute magnetization    =    32.09 Bohr mag/cell

     iteration # 13     ecut=    60.00 Ry     beta= 0.30
     Davidson diagonalization with overlap
     ethr =  5.25E-10,  avg # of iterations =  4.1

     negative rho (up, down):  0.000E+00 3.264E-03

     total cpu time spent up to now is    12753.2 secs

     total energy              =   -3488.69900636 Ry
     estimated scf accuracy    <       0.00000086 Ry

     total magnetization       =    32.00 Bohr mag/cell
     absolute magnetization    =    32.09 Bohr mag/cell

     iteration # 14     ecut=    60.00 Ry     beta= 0.30
     Davidson diagonalization with overlap
     ethr =  3.59E-10,  avg # of iterations =  6.1

     negative rho (up, down):  0.000E+00 3.264E-03

     total cpu time spent up to now is    12849.2 secs

     total energy              =   -3488.69900621 Ry
     estimated scf accuracy    <       0.00000371 Ry

     total magnetization       =    32.00 Bohr mag/cell
     absolute magnetization    =    32.09 Bohr mag/cell

     iteration # 15     ecut=    60.00 Ry     beta= 0.30
     Davidson diagonalization with overlap
     ethr =  3.59E-10,  avg # of iterations =  6.2

     negative rho (up, down):  0.000E+00 3.265E-03

     total cpu time spent up to now is    12942.3 secs

     total energy              =   -3488.69900693 Ry
     estimated scf accuracy    <       0.00000031 Ry

     total magnetization       =    32.00 Bohr mag/cell
     absolute magnetization    =    32.09 Bohr mag/cell

     iteration # 16     ecut=    60.00 Ry     beta= 0.30
     Davidson diagonalization with overlap
     ethr =  1.29E-10,  avg # of iterations =  4.2

     negative rho (up, down):  0.000E+00 3.264E-03

     total cpu time spent up to now is    13018.7 secs

     total energy              =   -3488.69900751 Ry
     estimated scf accuracy    <       0.00000023 Ry

     total magnetization       =    32.00 Bohr mag/cell
     absolute magnetization    =    32.09 Bohr mag/cell

     iteration # 17     ecut=    60.00 Ry     beta= 0.30
     Davidson diagonalization with overlap
     ethr =  9.43E-11,  avg # of iterations =  6.5

     negative rho (up, down):  0.000E+00 3.265E-03

     total cpu time spent up to now is    13110.5 secs

     total energy              =   -3488.69900762 Ry
     estimated scf accuracy    <       0.00000110 Ry

     total magnetization       =    32.00 Bohr mag/cell
     absolute magnetization    =    32.09 Bohr mag/cell

     iteration # 18     ecut=    60.00 Ry     beta= 0.30
     Davidson diagonalization with overlap
     ethr =  9.43E-11,  avg # of iterations =  2.5

     negative rho (up, down):  0.000E+00 3.265E-03

     total cpu time spent up to now is    13159.2 secs

     total energy              =   -3488.69900742 Ry
     estimated scf accuracy    <       0.00000047 Ry

     total magnetization       =    32.00 Bohr mag/cell
     absolute magnetization    =    32.09 Bohr mag/cell

     iteration # 19     ecut=    60.00 Ry     beta= 0.30
     Davidson diagonalization with overlap
     ethr =  9.43E-11,  avg # of iterations =  5.8

     negative rho (up, down):  0.000E+00 3.265E-03

     total cpu time spent up to now is    13264.2 secs

     total energy              =   -3488.69900763 Ry
     estimated scf accuracy    <       0.00000013 Ry

     total magnetization       =    32.00 Bohr mag/cell
     absolute magnetization    =    32.09 Bohr mag/cell

     iteration # 20     ecut=    60.00 Ry     beta= 0.30
     Davidson diagonalization with overlap
     ethr =  5.43E-11,  avg # of iterations =  2.0

     negative rho (up, down):  0.000E+00 3.265E-03

     Magnetic moment per site:
     atom:    1    charge:   13.3651    magn:    3.3214    constr:    0.0000
     atom:    2    charge:   13.3651    magn:    3.3214    constr:    0.0000
     atom:    3    charge:   13.3651    magn:    3.3214    constr:    0.0000
     atom:    4    charge:   13.3651    magn:    3.3214    constr:    0.0000
     atom:    5    charge:   13.3276    magn:    3.4117    constr:    0.0000
     atom:    6    charge:   13.3276    magn:    3.4117    constr:    0.0000
     atom:    7    charge:   13.3276    magn:    3.4117    constr:    0.0000
     atom:    8    charge:   13.3276    magn:    3.4117    constr:    0.0000
     atom:    9    charge:    0.3878    magn:    0.0042    constr:    0.0000
     atom:   10    charge:    0.3878    magn:    0.0042    constr:    0.0000
     atom:   11    charge:    0.3878    magn:    0.0042    constr:    0.0000
     atom:   12    charge:    0.3878    magn:    0.0042    constr:    0.0000
     atom:   13    charge:    4.0291    magn:    0.1049    constr:    0.0000
     atom:   14    charge:    4.0291    magn:    0.1049    constr:    0.0000
     atom:   15    charge:    4.0291    magn:    0.1049    constr:    0.0000
     atom:   16    charge:    4.0291    magn:    0.1049    constr:    0.0000
     atom:   17    charge:    4.0217    magn:    0.1182    constr:    0.0000
     atom:   18    charge:    4.0217    magn:    0.1182    constr:    0.0000
     atom:   19    charge:    4.0217    magn:    0.1182    constr:    0.0000
     atom:   20    charge:    4.0217    magn:    0.1182    constr:    0.0000
     atom:   21    charge:    4.0195    magn:    0.1200    constr:    0.0000
     atom:   22    charge:    4.0195    magn:    0.1200    constr:    0.0000
     atom:   23    charge:    4.0195    magn:    0.1200    constr:    0.0000
     atom:   24    charge:    4.0195    magn:    0.1200    constr:    0.0000
     atom:   25    charge:    4.0195    magn:    0.1200    constr:    0.0000
     atom:   26    charge:    4.0195    magn:    0.1200    constr:    0.0000
     atom:   27    charge:    4.0195    magn:    0.1200    constr:    0.0000
     atom:   28    charge:    4.0195    magn:    0.1200    constr:    0.0000

     total cpu time spent up to now is    13328.9 secs

     End of self-consistent calculation

 ------ SPIN UP ------------


          k = 0.0000 0.0000 0.0000 ( 15339 PWs)   bands (ev):

   -79.3493 -79.3493 -79.3493 -79.3492 -79.1226 -79.1225 -79.1207 -79.1206
   -46.0285 -46.0285 -46.0272 -46.0272 -45.6122 -45.6122 -45.6059 -45.6059
   -45.2665 -45.2664 -45.2662 -45.2662 -45.0889 -45.0887 -45.0862 -45.0861
   -44.8866 -44.8866 -44.8858 -44.8858 -44.8629 -44.8629 -44.8354 -44.8354
   -11.3587 -11.1414 -10.8803 -10.7391  -9.7545  -9.7364  -9.6994  -9.6532
    -9.6494  -9.5379  -9.5093  -9.4660  -9.4575  -9.4192  -9.3967  -9.3275
     1.0452   1.0537   1.5435   1.5679   1.6380   1.7032   2.3154   2.3241
     2.3347   2.8064   2.9127   3.0165   3.1119   3.5885   3.7378   3.7454
     3.9881   4.0707   4.0741   4.0949   4.2550   4.3618   4.3846   4.3916
     4.4051   4.4968   4.5416   4.5665   4.6284   4.6786   4.7318   4.7688
     4.8436   4.9236   4.9429   4.9816   5.2026   5.2195   5.2978   5.3342
     5.3939   5.6949   5.9649   5.9762   6.0053   6.1623   6.1929   6.3455
     6.7378   6.9821   7.0240   7.0431   7.0840   7.1571   7.1696   7.3388
     7.3430   7.4004   7.4314   7.5100   7.5248   7.5342   7.8114   7.8474
     7.8838   7.9719   7.9971   8.0270   8.0420   8.0458   8.0591   8.1775
     8.2966   8.3185   8.3428   8.3962   8.6407   8.7042   8.8540   8.9513
     8.9886   9.0278   9.1976   9.2126   9.2771   9.3700   9.4431   9.6309
    11.3626  13.3773  13.9453  15.2934  15.8101  16.1896  16.2773  16.3620

          k = 0.0000 0.0000-0.3926 ( 15392 PWs)   bands (ev):

   -79.3493 -79.3493 -79.3493 -79.3493 -79.1216 -79.1216 -79.1216 -79.1216
   -46.0279 -46.0279 -46.0279 -46.0279 -45.6091 -45.6091 -45.6090 -45.6090
   -45.2663 -45.2663 -45.2663 -45.2663 -45.0875 -45.0875 -45.0875 -45.0875
   -44.8862 -44.8862 -44.8862 -44.8862 -44.8493 -44.8493 -44.8493 -44.8493
   -11.0720 -11.0720 -10.9815 -10.9815  -9.7397  -9.7397  -9.6967  -9.6967
    -9.6584  -9.6584  -9.4940  -9.4940  -9.4158  -9.4158  -9.3326  -9.3326
     1.3258   1.3258   1.4107   1.4107   2.0499   2.0499   2.1255   2.1255
     2.7429   2.7429   3.1896   3.1896   3.4619   3.4619   3.6836   3.6836
     3.7509   3.7509   3.9729   3.9729   4.1325   4.1325   4.3348   4.3348
     4.4197   4.4197   4.4729   4.4729   4.7212   4.7212   4.7835   4.7835
     4.8312   4.8312   5.0641   5.0641   5.1077   5.1077   5.4378   5.4378
     5.6005   5.6005   5.6695   5.6695   5.8103   5.8103   5.9047   5.9047
     7.0326   7.0326   7.0532   7.0532   7.1885   7.1885   7.2131   7.2131
     7.5050   7.5050   7.5222   7.5222   7.5858   7.5858   7.7429   7.7429
     7.9779   7.9779   8.0134   8.0134   8.0783   8.0783   8.1366   8.1366
     8.3817   8.3817   8.5003   8.5003   8.7182   8.7182   8.7289   8.7289
     8.8793   8.8793   8.9184   8.9184   9.2038   9.2038   9.4520   9.4520
    13.2868  13.2868  14.4295  14.4295  15.1670  15.1670  16.6404  16.6405

          k =-0.4863 0.0000 0.0000 ( 15374 PWs)   bands (ev):

   -79.3493 -79.3493 -79.3493 -79.3493 -79.1226 -79.1226 -79.1206 -79.1206
   -46.0279 -46.0279 -46.0279 -46.0279 -45.6122 -45.6122 -45.6059 -45.6059
   -45.2663 -45.2663 -45.2663 -45.2663 -45.0888 -45.0888 -45.0862 -45.0862
   -44.8862 -44.8862 -44.8862 -44.8862 -44.8629 -44.8629 -44.8354 -44.8354
   -10.9853 -10.9853 -10.7084 -10.7084 -10.0707 -10.0707  -9.8382  -9.8382
    -9.6150  -9.6150  -9.4359  -9.4359  -9.4202  -9.4202  -9.3990  -9.3990
     1.0997   1.0997   1.2010   1.2010   2.6687   2.6687   2.7622   2.7622
     2.9555   2.9555   3.0134   3.0134   3.2889   3.2889   3.3377   3.3377
     3.5476   3.5476   3.5910   3.5910   3.7328   3.7328   4.2716   4.2716
     4.3668   4.3668   4.3989   4.3989   4.8539   4.8539   4.8697   4.8697
     4.9812   4.9812   5.0834   5.0834   5.2203   5.2203   5.5568   5.5568
     5.6325   5.6325   5.8019   5.8019   6.0238   6.0238   6.6544   6.6544
     6.9787   6.9787   7.0393   7.0393   7.1121   7.1121   7.2275   7.2275
     7.3120   7.3120   7.3134   7.3134   7.4974   7.4974   7.7285   7.7285
     7.8568   7.8568   8.0330   8.0330   8.0846   8.0846   8.1868   8.1868
     8.5268   8.5268   8.7098   8.7098   8.7223   8.7223   8.8165   8.8165
     8.9428   8.9428   9.0195   9.0195   9.1877   9.1877   9.3713   9.3713
    13.9455  13.9455  14.8530  14.8530  15.2231  15.2231  15.4068  15.4068

          k =-0.4863 0.0000-0.3926 ( 15436 PWs)   bands (ev):

   -79.3494 -79.3494 -79.3493 -79.3493 -79.1217 -79.1217 -79.1216 -79.1216
   -46.0279 -46.0279 -46.0279 -46.0279 -45.6090 -45.6090 -45.6090 -45.6090
   -45.2663 -45.2663 -45.2663 -45.2663 -45.0875 -45.0875 -45.0875 -45.0875
   -44.8862 -44.8862 -44.8862 -44.8862 -44.8493 -44.8493 -44.8492 -44.8492
   -10.8465 -10.8465 -10.8122 -10.8122  -9.9612  -9.9612  -9.9578  -9.9578
    -9.6059  -9.6059  -9.5345  -9.5345  -9.4005  -9.4005  -9.3849  -9.3849
     1.2606   1.2606   1.2633   1.2633   2.7187   2.7187   2.8996   2.8996
     3.0730   3.0730   3.1332   3.1332   3.1964   3.1964   3.3848   3.3848
     3.5319   3.5319   3.6200   3.6200   3.7420   3.7420   3.8346   3.8346
     4.2531   4.2531   4.5609   4.5609   4.9988   4.9988   5.0631   5.0631
     5.1243   5.1243   5.2165   5.2165   5.2671   5.2671   5.3179   5.3179
     5.4797   5.4797   5.5863   5.5863   5.8961   5.8961   6.0592   6.0592
     7.0144   7.0144   7.1300   7.1300   7.2822   7.2822   7.2863   7.2863
     7.2963   7.2963   7.4569   7.4569   7.6782   7.6782   7.6992   7.6992
     7.7570   7.7570   7.9029   7.9029   7.9618   7.9618   8.0758   8.0758
     8.3952   8.3952   8.4188   8.4188   8.4215   8.4215   8.8032   8.8032
     9.0088   9.0088   9.0541   9.0541   9.1618   9.1618   9.5615   9.5615
    14.9629  14.9629  14.9901  14.9901  15.7628  15.7768  15.7857  15.8285

 ------ SPIN DOWN ----------


          k = 0.0000 0.0000 0.0000 ( 15339 PWs)   bands (ev):

   -75.1296 -75.1295 -75.1294 -75.1293 -75.0426 -75.0425 -75.0405 -75.0404
   -41.4529 -41.4529 -41.4509 -41.4509 -41.3105 -41.3104 -41.3015 -41.3015
   -41.2630 -41.2628 -41.2623 -41.2621 -41.1856 -41.1852 -41.1813 -41.1812
   -41.1219 -41.1217 -41.1055 -41.1054 -41.1045 -41.1043 -41.0892 -41.0891
   -11.1427 -10.9288 -10.6663 -10.5277  -9.5335  -9.5041  -9.4670  -9.4183
    -9.4173  -9.2878  -9.2651  -9.2189  -9.2024  -9.1677  -9.1408  -9.0746
     1.2996   1.3216   1.7861   1.8454   1.8865   2.0656   2.6614   2.6950
     2.7504   3.1936   3.3003   3.3176   3.4998   4.0341   4.0547   4.0587
     4.4333   4.5987   4.7374   4.7736   4.8275   4.9137   4.9310   4.9632
     4.9946   5.1284   5.1604   5.1715   5.3145   5.3154   5.4852   5.5093
     5.5616   5.5927   5.7162   5.7312   5.7735   5.7914   5.8109   5.9479
     6.2516   6.3321   6.4142   6.4785   6.6180   6.6492   6.7054   6.8983
     9.8997   9.9304  10.1727  10.1965  10.2958  10.3731  10.4016  10.4141
    10.4321  10.5511  10.6161  10.8408  10.9249  10.9355  10.9486  10.9630
    10.9777  11.0577  11.0648  11.1746  11.1774  11.2129  11.3764  11.3827
    11.8190  11.8576  11.9405  11.9786  12.0027  12.1441  12.2098  12.2639
    12.2845  12.2927  12.3467  12.3956  12.4474  12.4659  12.5288  12.7903
    12.7937  13.9607  14.4692  15.7472  16.1703  16.6561  16.7148  16.7575

          k = 0.0000 0.0000-0.3926 ( 15392 PWs)   bands (ev):

   -75.1296 -75.1296 -75.1295 -75.1295 -75.0416 -75.0416 -75.0416 -75.0416
   -41.4520 -41.4520 -41.4520 -41.4520 -41.3059 -41.3059 -41.3059 -41.3059
   -41.2627 -41.2627 -41.2625 -41.2625 -41.1833 -41.1833 -41.1831 -41.1831
   -41.1068 -41.1068 -41.1057 -41.1057 -41.1050 -41.1050 -41.1039 -41.1039
   -10.8574 -10.8574 -10.7691 -10.7691  -9.5011  -9.5011  -9.4708  -9.4708
    -9.4208  -9.4208  -9.2462  -9.2462  -9.1634  -9.1634  -9.0803  -9.0803
     1.5847   1.5847   1.6583   1.6583   2.4226   2.4226   2.4724   2.4724
     3.1091   3.1091   3.5278   3.5278   3.8305   3.8305   4.0537   4.0537
     4.2708   4.2708   4.5238   4.5238   4.7535   4.7535   4.8724   4.8724
     4.9436   4.9436   5.1395   5.1395   5.3542   5.3542   5.3808   5.3808
     5.6327   5.6327   5.7705   5.7705   5.8234   5.8234   6.0241   6.0241
     6.0576   6.0576   6.1446   6.1446   6.5534   6.5534   6.6655   6.6655
    10.2987  10.2987  10.3459  10.3459  10.3865  10.3865  10.4035  10.4035
    10.5870  10.5870  10.6926  10.6926  10.8460  10.8460  10.8766  10.8766
    10.9663  10.9663  11.0227  11.0227  11.1748  11.1748  11.2881  11.2881
    11.7426  11.7426  11.8695  11.8695  12.1655  12.1655  12.1937  12.1937
    12.3118  12.3118  12.3630  12.3630  12.5734  12.5734  12.6367  12.6367
    13.8991  13.8991  14.9435  14.9435  15.6812  15.6812  16.9896  16.9896

          k =-0.4863 0.0000 0.0000 ( 15374 PWs)   bands (ev):

   -75.1296 -75.1296 -75.1294 -75.1294 -75.0427 -75.0427 -75.0404 -75.0404
   -41.4519 -41.4519 -41.4519 -41.4519 -41.3105 -41.3105 -41.3015 -41.3015
   -41.2627 -41.2627 -41.2624 -41.2624 -41.1854 -41.1854 -41.1812 -41.1812
   -41.1218 -41.1218 -41.1050 -41.1050 -41.1049 -41.1049 -41.0892 -41.0892
   -10.7730 -10.7730 -10.4883 -10.4883  -9.8458  -9.8458  -9.6141  -9.6141
    -9.3664  -9.3664  -9.1821  -9.1821  -9.1708  -9.1708  -9.1535  -9.1535
     1.3929   1.3929   1.4367   1.4367   2.9983   2.9983   3.0756   3.0756
     3.3837   3.3837   3.4148   3.4148   3.7144   3.7144   3.7821   3.7821
     3.9942   3.9942   4.0513   4.0513   4.1267   4.1267   4.6272   4.6272
     4.9980   4.9980   5.0636   5.0636   5.5770   5.5770   5.6349   5.6349
     5.7959   5.7959   5.8761   5.8761   6.0276   6.0276   6.0991   6.0991
     6.2753   6.2753   6.4397   6.4397   6.5861   6.5861   7.0557   7.0557
     9.9032   9.9032  10.1268  10.1268  10.3290  10.3290  10.4523  10.4523
    10.5692  10.5692  10.6755  10.6755  10.9804  10.9804  10.9943  10.9943
    11.0528  11.0528  11.1494  11.1494  11.1672  11.1672  11.4274  11.4274
    11.9214  11.9214  11.9674  11.9674  12.0138  12.0138  12.1416  12.1416
    12.2165  12.2165  12.4163  12.4163  12.4843  12.4843  12.6464  12.6464
    14.3986  14.3986  15.2018  15.2018  15.7901  15.7901  16.0059  16.0059

          k =-0.4863 0.0000-0.3926 ( 15436 PWs)   bands (ev):

   -75.1296 -75.1296 -75.1296 -75.1296 -75.0416 -75.0416 -75.0416 -75.0416
   -41.4520 -41.4520 -41.4520 -41.4520 -41.3060 -41.3060 -41.3058 -41.3058
   -41.2627 -41.2627 -41.2624 -41.2624 -41.1833 -41.1833 -41.1831 -41.1831
   -41.1068 -41.1068 -41.1058 -41.1058 -41.1050 -41.1050 -41.1039 -41.1039
   -10.6312 -10.6312 -10.5968 -10.5968  -9.7375  -9.7375  -9.7313  -9.7313
    -9.3571  -9.3571  -9.2856  -9.2856  -9.1485  -9.1485  -9.1372  -9.1372
     1.5252   1.5252   1.5567   1.5567   3.1256   3.1256   3.3126   3.3126
     3.4460   3.4460   3.5340   3.5340   3.5979   3.5979   3.7239   3.7239
     3.9906   3.9906   4.0374   4.0374   4.2985   4.2985   4.3344   4.3344
     4.6822   4.6822   5.0480   5.0480   5.5388   5.5388   5.5460   5.5460
     5.8013   5.8013   5.8839   5.8839   6.1226   6.1226   6.1687   6.1687
     6.2380   6.2380   6.3127   6.3127   6.4686   6.4686   6.6683   6.6683
    10.2203  10.2203  10.2342  10.2342  10.4159  10.4159  10.4237  10.4237
    10.7020  10.7020  10.7149  10.7149  10.8753  10.8753  10.8911  10.8911
    11.0031  11.0031  11.0891  11.0891  11.1380  11.1380  11.2345  11.2345
    11.6847  11.6847  11.7248  11.7248  11.9639  11.9639  12.0507  12.0507
    12.2158  12.2158  12.3367  12.3367  12.4963  12.4963  12.8039  12.8039
    15.4235  15.4235  15.5177  15.5177  16.2596  16.2600  16.2690  16.2691

     the Fermi energy is    10.5074 ev

!    total energy              =   -3488.69900764 Ry

     total all-electron energy =    -25094.004975 Ry
     estimated scf accuracy    <       0.00000003 Ry
     smearing contrib. (-TS)   =      -0.01095501 Ry
     internal energy E=F+TS    =   -3488.68805263 Ry

     The total energy is F=E-TS. E is the sum of the following terms:
     one-electron contribution =   -1484.47319804 Ry
     hartree contribution      =     869.18159739 Ry
     xc contribution           =    -368.38834755 Ry
     ewald contribution        =   -1547.25467882 Ry
     one-center paw contrib.   =    -957.75342560 Ry

     total magnetization       =    32.00 Bohr mag/cell
     absolute magnetization    =    32.09 Bohr mag/cell

     convergence has been achieved in  20 iterations

     negative rho (up, down):  0.000E+00 3.265E-03

     Forces acting on atoms (cartesian axes, Ry/au):

     atom    1 type  1   force =     0.00000000    0.00000000    0.00000000
     atom    2 type  1   force =    -0.00000000    0.00000000    0.00000000
     atom    3 type  1   force =     0.00000000    0.00000000    0.00000000
     atom    4 type  1   force =     0.00000000   -0.00000000    0.00000000
     atom    5 type  1   force =    -0.00140505   -0.00101876   -0.00000000
     atom    6 type  1   force =     0.00140505    0.00101876   -0.00000000
     atom    7 type  1   force =    -0.00140505    0.00101876   -0.00000000
     atom    8 type  1   force =     0.00140505   -0.00101876    0.00000000
     atom    9 type  2   force =    -0.00311729   -0.00636818   -0.00000000
     atom   10 type  2   force =     0.00311729    0.00636818   -0.00000000
     atom   11 type  2   force =    -0.00311729    0.00636818    0.00000000
     atom   12 type  2   force =     0.00311729   -0.00636818    0.00000000
     atom   13 type  3   force =    -0.00322793    0.00086708    0.00000000
     atom   14 type  3   force =     0.00322793   -0.00086708    0.00000000
     atom   15 type  3   force =    -0.00322793   -0.00086708    0.00000000
     atom   16 type  3   force =     0.00322793    0.00086708    0.00000000
     atom   17 type  3   force =     0.00026578   -0.00520015    0.00000000
     atom   18 type  3   force =    -0.00026578    0.00520015   -0.00000000
     atom   19 type  3   force =     0.00026578    0.00520015    0.00000000
     atom   20 type  3   force =    -0.00026578   -0.00520015    0.00000000
     atom   21 type  3   force =     0.00139884    0.00061153   -0.00224413
     atom   22 type  3   force =    -0.00139884   -0.00061153    0.00224413
     atom   23 type  3   force =     0.00139884   -0.00061153    0.00224413
     atom   24 type  3   force =    -0.00139884    0.00061153   -0.00224413
     atom   25 type  3   force =    -0.00139884   -0.00061153   -0.00224413
     atom   26 type  3   force =     0.00139884    0.00061153    0.00224413
     atom   27 type  3   force =    -0.00139884    0.00061153    0.00224413
     atom   28 type  3   force =     0.00139884   -0.00061153   -0.00224413

     Total force =     0.020620     Total SCF correction =     0.000246


     Computing stress (Cartesian axis) and pressure


     negative rho (up, down):  0.000E+00 3.265E-03
          total   stress  (Ry/bohr**3)                   (kbar)     P=       -1.67
   0.00000267   0.00000000   0.00000000            0.39        0.00        0.00
   0.00000000  -0.00002814   0.00000000            0.00       -4.14        0.00
   0.00000000   0.00000000  -0.00000853            0.00        0.00       -1.25

     Energy error            =      1.2E-03
     Gradient error          =      6.4E-03
     Cell gradient error     =      2.8E-05


     number of scf cycles    =   8
     number of bfgs steps    =   7

     enthalpy old            =   -3488.6978024773 Ry
     enthalpy new            =   -3488.6990076414 Ry

     CASE: enthalpy_new < enthalpy_old

     new trust radius        =       0.0176101672 bohr
     new conv_thr            =       0.0000000637 Ry

     new unit-cell volume =   2090.21919 a.u.^3 (   309.73853 Ang^3 )
     density =      4.36975 g/cm^3

CELL_PARAMETERS (angstrom)
   4.896592928   0.000000000   0.000000000
   0.000000000  10.462819144   0.000000000
   0.000000000   0.000000000   6.045782382

ATOMIC_POSITIONS (angstrom)
Fe            0.0000000000       -0.0000000000        0.0000000000
Fe            2.4482964641        5.2314095718        0.0000000000
Fe           -0.0000000000        0.0000000000        3.0228911908
Fe            2.4482964641        5.2314095718        3.0228911908
Fe            0.1169184016        2.9029422067        4.5343367862
Fe            4.7796745267        7.5598769370        1.5114455954
Fe            2.5652148657        2.3284673652        1.5114455954
Fe            2.3313780625        8.1343517785        4.5343367862
Si            0.3591002068        4.2435393683        1.5114455954
Si            4.5374927215        6.2192797754        4.5343367862
Si            2.8073966709        0.9878702035        4.5343367862
Si            2.0891962574        9.4749489401        1.5114455954
O             1.1692893215        0.9764906038        4.5343367862
O             3.7273036067        9.4863285398        1.5114455954
O             3.6175857856        4.2549189680        1.5114455954
O             1.2790071426        6.2079001757        4.5343367862
O             1.4424554677        0.5480577212        1.5114455954
O             3.4541374606        9.9147614224        4.5343367862
O             3.8907519318        4.6833518506        4.5343367862
O             1.0058409964        5.7794672931        1.5114455954
O             1.0559596336        3.5083546441        2.8187998551
O             3.8406332946        6.9544644995        3.2269825265
O             3.5042560978        1.7230549277        3.2269825265
O             1.3923368305        8.7397642160        2.8187998551
O             3.8406332946        6.9544644995        5.8416910459
O             1.0559596336        3.5083546441        0.2040913357
O             1.3923368305        8.7397642160        0.2040913357
O             3.5042560978        1.7230549277        5.8416910459



     Writing output data file ./out/oliv.save/
     NEW-OLD atomic charge density approx. for the potential

     Check: negative core charge=   -0.000002

     negative rho (up, down):  0.000E+00 3.250E-03
     extrapolated charge  239.81718, renormalised to  240.00000
     Generating pointlists ...

     total cpu time spent up to now is    16843.4 secs

     Self-consistent Calculation

     iteration #  1     ecut=    60.00 Ry     beta= 0.30
     Davidson diagonalization with overlap
     ethr =  1.00E-06,  avg # of iterations =  8.9

     negative rho (up, down):  0.000E+00 3.218E-03

     total cpu time spent up to now is    17060.6 secs

     total energy              =   -3488.69726608 Ry
     estimated scf accuracy    <       0.00296783 Ry

     total magnetization       =    32.00 Bohr mag/cell
     absolute magnetization    =    32.09 Bohr mag/cell

     iteration #  2     ecut=    60.00 Ry     beta= 0.30
     Davidson diagonalization with overlap
     ethr =  1.24E-06,  avg # of iterations =  3.9

     negative rho (up, down):  0.000E+00 3.226E-03

     total cpu time spent up to now is    17158.7 secs

     total energy              =   -3488.69931216 Ry
     estimated scf accuracy    <       0.00515896 Ry

     total magnetization       =    32.00 Bohr mag/cell
     absolute magnetization    =    32.10 Bohr mag/cell

     iteration #  3     ecut=    60.00 Ry     beta= 0.30
     Davidson diagonalization with overlap
     ethr =  1.24E-06,  avg # of iterations =  2.0

     negative rho (up, down):  0.000E+00 3.234E-03

     total cpu time spent up to now is    17215.7 secs

     total energy              =   -3488.69915409 Ry
     estimated scf accuracy    <       0.01794856 Ry

     total magnetization       =    32.00 Bohr mag/cell
     absolute magnetization    =    32.10 Bohr mag/cell

     iteration #  4     ecut=    60.00 Ry     beta= 0.30
     Davidson diagonalization with overlap
     ethr =  1.24E-06,  avg # of iterations =  1.1

     negative rho (up, down):  0.000E+00 3.239E-03

     total cpu time spent up to now is    17268.1 secs

     total energy              =   -3488.69961441 Ry
     estimated scf accuracy    <       0.00101345 Ry

     total magnetization       =    32.00 Bohr mag/cell
     absolute magnetization    =    32.10 Bohr mag/cell

     iteration #  5     ecut=    60.00 Ry     beta= 0.30
     Davidson diagonalization with overlap
     ethr =  4.22E-07,  avg # of iterations =  2.0

     negative rho (up, down):  0.000E+00 3.248E-03

     total cpu time spent up to now is    17331.4 secs

     total energy              =   -3488.69954029 Ry
     estimated scf accuracy    <       0.00029477 Ry

     total magnetization       =    32.00 Bohr mag/cell
     absolute magnetization    =    32.09 Bohr mag/cell

     iteration #  6     ecut=    60.00 Ry     beta= 0.30
     Davidson diagonalization with overlap
     ethr =  1.23E-07,  avg # of iterations =  4.2

     negative rho (up, down):  0.000E+00 3.246E-03

     total cpu time spent up to now is    17416.1 secs

     total energy              =   -3488.69966144 Ry
     estimated scf accuracy    <       0.00014313 Ry

     total magnetization       =    32.00 Bohr mag/cell
     absolute magnetization    =    32.09 Bohr mag/cell

     iteration #  7     ecut=    60.00 Ry     beta= 0.30
     Davidson diagonalization with overlap
     ethr =  5.96E-08,  avg # of iterations =  1.8

     negative rho (up, down):  0.000E+00 3.243E-03

     total cpu time spent up to now is    17482.8 secs

     total energy              =   -3488.69963833 Ry
     estimated scf accuracy    <       0.00006393 Ry

     total magnetization       =    32.00 Bohr mag/cell
     absolute magnetization    =    32.09 Bohr mag/cell

     iteration #  8     ecut=    60.00 Ry     beta= 0.30
     Davidson diagonalization with overlap
     ethr =  2.66E-08,  avg # of iterations =  2.9

     negative rho (up, down):  0.000E+00 3.242E-03

     total cpu time spent up to now is    17553.9 secs

     total energy              =   -3488.69965851 Ry
     estimated scf accuracy    <       0.00000448 Ry

     total magnetization       =    32.00 Bohr mag/cell
     absolute magnetization    =    32.09 Bohr mag/cell

     iteration #  9     ecut=    60.00 Ry     beta= 0.30
     Davidson diagonalization with overlap
     ethr =  1.86E-09,  avg # of iterations =  5.4

     negative rho (up, down):  0.000E+00 3.243E-03

     total cpu time spent up to now is    17673.3 secs

     total energy              =   -3488.69966158 Ry
     estimated scf accuracy    <       0.00001855 Ry

     total magnetization       =    32.00 Bohr mag/cell
     absolute magnetization    =    32.09 Bohr mag/cell

     iteration # 10     ecut=    60.00 Ry     beta= 0.30
     Davidson diagonalization with overlap
     ethr =  1.86E-09,  avg # of iterations =  1.2

     negative rho (up, down):  0.000E+00 3.245E-03

     total cpu time spent up to now is    17722.6 secs

     total energy              =   -3488.69965375 Ry
     estimated scf accuracy    <       0.00001621 Ry

     total magnetization       =    32.00 Bohr mag/cell
     absolute magnetization    =    32.09 Bohr mag/cell

     iteration # 11     ecut=    60.00 Ry     beta= 0.30
     Davidson diagonalization with overlap
     ethr =  1.86E-09,  avg # of iterations =  6.1

     negative rho (up, down):  0.000E+00 3.244E-03

     total cpu time spent up to now is    17891.9 secs

     total energy              =   -3488.69965872 Ry
     estimated scf accuracy    <       0.00000723 Ry

     total magnetization       =    32.00 Bohr mag/cell
     absolute magnetization    =    32.09 Bohr mag/cell

     iteration # 12     ecut=    60.00 Ry     beta= 0.30
     Davidson diagonalization with overlap
     ethr =  1.86E-09,  avg # of iterations =  2.0

     negative rho (up, down):  0.000E+00 3.244E-03

     total cpu time spent up to now is    17963.3 secs

     total energy              =   -3488.69965732 Ry
     estimated scf accuracy    <       0.00000253 Ry

     total magnetization       =    32.00 Bohr mag/cell
     absolute magnetization    =    32.09 Bohr mag/cell

     iteration # 13     ecut=    60.00 Ry     beta= 0.30
     Davidson diagonalization with overlap
     ethr =  1.05E-09,  avg # of iterations =  5.6

     negative rho (up, down):  0.000E+00 3.244E-03

     total cpu time spent up to now is    18118.4 secs

     total energy              =   -3488.69965908 Ry
     estimated scf accuracy    <       0.00000486 Ry

     total magnetization       =    32.00 Bohr mag/cell
     absolute magnetization    =    32.09 Bohr mag/cell

     iteration # 14     ecut=    60.00 Ry     beta= 0.30
     Davidson diagonalization with overlap
     ethr =  1.05E-09,  avg # of iterations =  2.0

     negative rho (up, down):  0.000E+00 3.244E-03

     total cpu time spent up to now is    18198.1 secs

     total energy              =   -3488.69965790 Ry
     estimated scf accuracy    <       0.00000178 Ry

     total magnetization       =    32.00 Bohr mag/cell
     absolute magnetization    =    32.09 Bohr mag/cell

     iteration # 15     ecut=    60.00 Ry     beta= 0.30
     Davidson diagonalization with overlap
     ethr =  7.41E-10,  avg # of iterations =  6.1

     negative rho (up, down):  0.000E+00 3.244E-03

     total cpu time spent up to now is    18363.8 secs

     total energy              =   -3488.69965991 Ry
     estimated scf accuracy    <       0.00000769 Ry

     total magnetization       =    32.00 Bohr mag/cell
     absolute magnetization    =    32.09 Bohr mag/cell

     iteration # 16     ecut=    60.00 Ry     beta= 0.30
     Davidson diagonalization with overlap
     ethr =  7.41E-10,  avg # of iterations =  2.0

     negative rho (up, down):  0.000E+00 3.244E-03

     total cpu time spent up to now is    18438.3 secs

     total energy              =   -3488.69965868 Ry
     estimated scf accuracy    <       0.00000387 Ry

     total magnetization       =    32.00 Bohr mag/cell
     absolute magnetization    =    32.09 Bohr mag/cell

     iteration # 17     ecut=    60.00 Ry     beta= 0.30
     Davidson diagonalization with overlap
     ethr =  7.41E-10,  avg # of iterations =  4.9

     negative rho (up, down):  0.000E+00 3.244E-03

     total cpu time spent up to now is    18559.8 secs

     total energy              =   -3488.69965936 Ry
     estimated scf accuracy    <       0.00000017 Ry

     total magnetization       =    32.00 Bohr mag/cell
     absolute magnetization    =    32.09 Bohr mag/cell

     iteration # 18     ecut=    60.00 Ry     beta= 0.30
     Davidson diagonalization with overlap
     ethr =  7.11E-11,  avg # of iterations =  5.0

     negative rho (up, down):  0.000E+00 3.244E-03

     Magnetic moment per site:
     atom:    1    charge:   13.3647    magn:    3.3208    constr:    0.0000
     atom:    2    charge:   13.3647    magn:    3.3208    constr:    0.0000
     atom:    3    charge:   13.3647    magn:    3.3208    constr:    0.0000
     atom:    4    charge:   13.3647    magn:    3.3208    constr:    0.0000
     atom:    5    charge:   13.3279    magn:    3.4126    constr:    0.0000
     atom:    6    charge:   13.3279    magn:    3.4126    constr:    0.0000
     atom:    7    charge:   13.3279    magn:    3.4126    constr:    0.0000
     atom:    8    charge:   13.3279    magn:    3.4126    constr:    0.0000
     atom:    9    charge:    0.3882    magn:    0.0043    constr:    0.0000
     atom:   10    charge:    0.3882    magn:    0.0043    constr:    0.0000
     atom:   11    charge:    0.3882    magn:    0.0043    constr:    0.0000
     atom:   12    charge:    0.3882    magn:    0.0043    constr:    0.0000
     atom:   13    charge:    4.0294    magn:    0.1050    constr:    0.0000
     atom:   14    charge:    4.0294    magn:    0.1050    constr:    0.0000
     atom:   15    charge:    4.0294    magn:    0.1050    constr:    0.0000
     atom:   16    charge:    4.0294    magn:    0.1050    constr:    0.0000
     atom:   17    charge:    4.0215    magn:    0.1180    constr:    0.0000
     atom:   18    charge:    4.0215    magn:    0.1180    constr:    0.0000
     atom:   19    charge:    4.0215    magn:    0.1180    constr:    0.0000
     atom:   20    charge:    4.0215    magn:    0.1180    constr:    0.0000
     atom:   21    charge:    4.0207    magn:    0.1201    constr:    0.0000
     atom:   22    charge:    4.0207    magn:    0.1201    constr:    0.0000
     atom:   23    charge:    4.0207    magn:    0.1201    constr:    0.0000
     atom:   24    charge:    4.0207    magn:    0.1201    constr:    0.0000
     atom:   25    charge:    4.0207    magn:    0.1201    constr:    0.0000
     atom:   26    charge:    4.0207    magn:    0.1201    constr:    0.0000
     atom:   27    charge:    4.0207    magn:    0.1201    constr:    0.0000
     atom:   28    charge:    4.0207    magn:    0.1201    constr:    0.0000

     total cpu time spent up to now is    18638.9 secs

     End of self-consistent calculation

 ------ SPIN UP ------------


          k = 0.0000 0.0000 0.0000 ( 15339 PWs)   bands (ev):

   -79.3364 -79.3363 -79.3363 -79.3363 -79.1107 -79.1106 -79.1087 -79.1087
   -46.0140 -46.0140 -46.0127 -46.0127 -45.5945 -45.5945 -45.5882 -45.5882
   -45.2539 -45.2538 -45.2536 -45.2536 -45.0770 -45.0768 -45.0743 -45.0743
   -44.8750 -44.8750 -44.8742 -44.8741 -44.8569 -44.8569 -44.8287 -44.8287
   -11.3536 -11.1328 -10.8814 -10.7341  -9.7586  -9.7246  -9.7044  -9.6535
    -9.6377  -9.5318  -9.4829  -9.4609  -9.4325  -9.3960  -9.3902  -9.3221
     1.0496   1.0555   1.5592   1.5650   1.6426   1.7143   2.3264   2.3289
     2.3398   2.8284   2.9211   3.0368   3.1296   3.5858   3.7589   3.7643
     3.9945   4.0713   4.0899   4.1193   4.2589   4.3574   4.3959   4.4009
     4.4147   4.5111   4.5459   4.5587   4.6299   4.6868   4.7399   4.7628
     4.8612   4.9449   4.9473   4.9973   5.2031   5.2150   5.3040   5.3662
     5.3915   5.7079   5.9814   5.9832   6.0186   6.1856   6.2149   6.3648
     6.7542   6.9913   7.0370   7.0586   7.0972   7.1747   7.1845   7.3484
     7.3548   7.4228   7.4484   7.5256   7.5393   7.5515   7.8178   7.8608
     7.8940   7.9981   8.0034   8.0428   8.0547   8.0656   8.0706   8.1864
     8.3179   8.3335   8.3590   8.4142   8.6412   8.7172   8.8692   8.9512
     8.9901   9.0403   9.2191   9.2225   9.2873   9.3878   9.4587   9.6387
    11.3760  13.3802  13.9517  15.3002  15.8092  16.2334  16.2986  16.3656

          k = 0.0000 0.0000-0.3932 ( 15392 PWs)   bands (ev):

   -79.3364 -79.3364 -79.3364 -79.3364 -79.1097 -79.1097 -79.1097 -79.1097
   -46.0135 -46.0135 -46.0134 -46.0134 -45.5914 -45.5914 -45.5914 -45.5914
   -45.2537 -45.2537 -45.2537 -45.2537 -45.0756 -45.0756 -45.0756 -45.0756
   -44.8746 -44.8746 -44.8746 -44.8746 -44.8429 -44.8429 -44.8429 -44.8429
   -11.0665 -11.0665 -10.9766 -10.9766  -9.7284  -9.7284  -9.7001  -9.7001
    -9.6564  -9.6564  -9.4784  -9.4784  -9.4013  -9.4013  -9.3187  -9.3187
     1.3293   1.3293   1.4088   1.4088   2.0674   2.0674   2.1379   2.1379
     2.7541   2.7541   3.2064   3.2064   3.4728   3.4728   3.6983   3.6983
     3.7575   3.7575   3.9843   3.9843   4.1432   4.1432   4.3460   4.3460
     4.4153   4.4153   4.4905   4.4905   4.7269   4.7269   4.7912   4.7912
     4.8415   4.8415   5.0680   5.0680   5.1025   5.1025   5.4353   5.4353
     5.6263   5.6263   5.6813   5.6813   5.8234   5.8234   5.9318   5.9318
     7.0467   7.0467   7.0673   7.0673   7.2037   7.2037   7.2265   7.2265
     7.5207   7.5207   7.5387   7.5387   7.6012   7.6012   7.7582   7.7582
     7.9909   7.9909   8.0213   8.0213   8.0902   8.0902   8.1427   8.1427
     8.4013   8.4013   8.5180   8.5180   8.7320   8.7320   8.7468   8.7468
     8.8873   8.8873   8.9206   8.9206   9.2174   9.2174   9.4635   9.4635
    13.2988  13.2988  14.4330  14.4330  15.1740  15.1740  16.6384  16.6386

          k =-0.4855 0.0000 0.0000 ( 15374 PWs)   bands (ev):

   -79.3364 -79.3364 -79.3364 -79.3364 -79.1107 -79.1107 -79.1087 -79.1087
   -46.0134 -46.0134 -46.0134 -46.0134 -45.5945 -45.5945 -45.5882 -45.5882
   -45.2537 -45.2537 -45.2537 -45.2537 -45.0769 -45.0769 -45.0743 -45.0743
   -44.8746 -44.8746 -44.8745 -44.8745 -44.8569 -44.8569 -44.8287 -44.8287
   -10.9802 -10.9802 -10.7046 -10.7046 -10.0732 -10.0732  -9.8421  -9.8421
    -9.5901  -9.5901  -9.4299  -9.4299  -9.4148  -9.4148  -9.3729  -9.3729
     1.1150   1.1150   1.2179   1.2179   2.6783   2.6783   2.7659   2.7659
     2.9561   2.9561   3.0245   3.0245   3.2934   3.2934   3.3428   3.3428
     3.5644   3.5644   3.5970   3.5970   3.7349   3.7349   4.2745   4.2745
     4.3825   4.3825   4.4091   4.4091   4.8745   4.8745   4.8756   4.8756
     4.9882   4.9882   5.0937   5.0937   5.2277   5.2277   5.5737   5.5737
     5.6432   5.6432   5.8009   5.8009   6.0264   6.0264   6.6824   6.6824
     6.9949   6.9949   7.0540   7.0540   7.1208   7.1208   7.2416   7.2416
     7.3262   7.3262   7.3308   7.3308   7.5062   7.5062   7.7390   7.7390
     7.8659   7.8659   8.0462   8.0462   8.1073   8.1073   8.1996   8.1996
     8.5327   8.5327   8.7291   8.7291   8.7353   8.7353   8.8346   8.8346
     8.9572   8.9572   9.0256   9.0256   9.1946   9.1946   9.3893   9.3893
    13.9603  13.9603  14.8527  14.8527  15.2346  15.2346  15.4417  15.4417

          k =-0.4855 0.0000-0.3932 ( 15436 PWs)   bands (ev):

   -79.3364 -79.3364 -79.3364 -79.3364 -79.1097 -79.1097 -79.1097 -79.1097
   -46.0135 -46.0135 -46.0134 -46.0134 -45.5914 -45.5914 -45.5914 -45.5914
   -45.2537 -45.2537 -45.2537 -45.2537 -45.0756 -45.0756 -45.0756 -45.0756
   -44.8746 -44.8746 -44.8745 -44.8745 -44.8429 -44.8429 -44.8429 -44.8429
   -10.8408 -10.8408 -10.8073 -10.8073  -9.9650  -9.9650  -9.9623  -9.9623
    -9.5843  -9.5843  -9.5216  -9.5216  -9.3829  -9.3829  -9.3747  -9.3747
     1.2774   1.2774   1.2805   1.2805   2.7241   2.7241   2.9047   2.9047
     3.0782   3.0782   3.1419   3.1419   3.2020   3.2020   3.3831   3.3831
     3.5411   3.5411   3.6270   3.6270   3.7532   3.7532   3.8395   3.8395
     4.2777   4.2777   4.5634   4.5634   5.0113   5.0113   5.0795   5.0795
     5.1364   5.1364   5.2334   5.2334   5.2643   5.2643   5.3291   5.3291
     5.4948   5.4948   5.5960   5.5960   5.9033   5.9033   6.0696   6.0696
     7.0291   7.0291   7.1462   7.1462   7.2964   7.2964   7.2993   7.2993
     7.3126   7.3126   7.4648   7.4648   7.6937   7.6937   7.7150   7.7150
     7.7702   7.7702   7.9164   7.9164   7.9747   7.9747   8.0882   8.0882
     8.4122   8.4122   8.4308   8.4308   8.4352   8.4352   8.8127   8.8127
     9.0129   9.0129   9.0652   9.0652   9.1707   9.1707   9.5782   9.5782
    14.9603  14.9603  15.0004  15.0004  15.7760  15.7967  15.8020  15.8419

 ------ SPIN DOWN ----------


          k = 0.0000 0.0000 0.0000 ( 15339 PWs)   bands (ev):

   -75.1155 -75.1155 -75.1154 -75.1153 -75.0320 -75.0318 -75.0297 -75.0297
   -41.4385 -41.4384 -41.4365 -41.4365 -41.2977 -41.2977 -41.2886 -41.2886
   -41.2494 -41.2492 -41.2486 -41.2485 -41.1761 -41.1757 -41.1718 -41.1717
   -41.1119 -41.1117 -41.0918 -41.0917 -41.0908 -41.0906 -41.0786 -41.0786
   -11.1376 -10.9203 -10.6672 -10.5227  -9.5374  -9.4956  -9.4719  -9.4219
    -9.3987  -9.2817  -9.2390  -9.2138  -9.1780  -9.1446  -9.1342  -9.0690
     1.3096   1.3182   1.7828   1.8490   1.9019   2.0777   2.6681   2.7016
     2.7613   3.2146   3.3203   3.3274   3.5177   4.0322   4.0688   4.0860
     4.4387   4.6042   4.7489   4.7909   4.8235   4.9203   4.9510   4.9633
     5.0010   5.1297   5.1608   5.1696   5.3327   5.3353   5.4851   5.5155
     5.5657   5.5882   5.7210   5.7419   5.7720   5.8105   5.8257   5.9450
     6.2600   6.3307   6.4453   6.4869   6.6464   6.6814   6.7325   6.9201
     9.8970   9.9336  10.1906  10.2101  10.3139  10.3784  10.4220  10.4307
    10.4441  10.5685  10.6296  10.8517  10.9358  10.9508  10.9652  10.9795
    10.9947  11.0680  11.0787  11.1837  11.1885  11.2300  11.3923  11.4000
    11.8393  11.8778  11.9527  11.9994  12.0133  12.1600  12.2180  12.2831
    12.2954  12.3022  12.3590  12.4085  12.4640  12.4684  12.5365  12.8030
    12.8039  13.9641  14.4701  15.7481  16.1687  16.6793  16.7346  16.7545

          k = 0.0000 0.0000-0.3932 ( 15392 PWs)   bands (ev):

   -75.1155 -75.1155 -75.1155 -75.1155 -75.0309 -75.0309 -75.0309 -75.0309
   -41.4376 -41.4376 -41.4376 -41.4376 -41.2931 -41.2931 -41.2930 -41.2930
   -41.2490 -41.2490 -41.2488 -41.2488 -41.1738 -41.1738 -41.1737 -41.1737
   -41.0959 -41.0959 -41.0955 -41.0955 -41.0913 -41.0913 -41.0909 -41.0909
   -10.8519 -10.8519 -10.7642 -10.7642  -9.4924  -9.4924  -9.4739  -9.4739
    -9.4161  -9.4161  -9.2308  -9.2308  -9.1491  -9.1491  -9.0665  -9.0665
     1.5879   1.5879   1.6570   1.6570   2.4413   2.4413   2.4872   2.4872
     3.1193   3.1193   3.5425   3.5425   3.8413   3.8413   4.0675   4.0675
     4.2792   4.2792   4.5372   4.5372   4.7661   4.7661   4.8688   4.8688
     4.9477   4.9477   5.1483   5.1483   5.3663   5.3663   5.3869   5.3869
     5.6358   5.6358   5.7732   5.7732   5.8210   5.8210   6.0299   6.0299
     6.0856   6.0856   6.1557   6.1557   6.5714   6.5714   6.6923   6.6923
    10.3130  10.3130  10.3542  10.3542  10.4019  10.4019  10.4169  10.4169
    10.5953  10.5953  10.7092  10.7092  10.8550  10.8550  10.8903  10.8903
    10.9807  10.9807  11.0333  11.0333  11.1922  11.1922  11.3026  11.3026
    11.7619  11.7619  11.8878  11.8878  12.1774  12.1774  12.2029  12.2029
    12.3231  12.3231  12.3746  12.3746  12.5836  12.5836  12.6478  12.6478
    13.9133  13.9133  14.9484  14.9484  15.6850  15.6850  16.9895  16.9895

          k =-0.4855 0.0000 0.0000 ( 15374 PWs)   bands (ev):

   -75.1155 -75.1155 -75.1154 -75.1154 -75.0320 -75.0320 -75.0297 -75.0297
   -41.4375 -41.4375 -41.4375 -41.4375 -41.2978 -41.2978 -41.2887 -41.2887
   -41.2490 -41.2490 -41.2488 -41.2488 -41.1759 -41.1759 -41.1718 -41.1718
   -41.1119 -41.1119 -41.0913 -41.0913 -41.0912 -41.0912 -41.0786 -41.0786
   -10.7680 -10.7680 -10.4845 -10.4845  -9.8480  -9.8480  -9.6180  -9.6180
    -9.3413  -9.3413  -9.1761  -9.1761  -9.1653  -9.1653  -9.1277  -9.1277
     1.4093   1.4093   1.4540   1.4540   3.0087   3.0087   3.0819   3.0819
     3.3764   3.3764   3.4223   3.4223   3.7184   3.7184   3.7971   3.7971
     3.9981   3.9981   4.0690   4.0690   4.1299   4.1299   4.6216   4.6216
     5.0168   5.0168   5.0770   5.0770   5.5824   5.5824   5.6496   5.6496
     5.7924   5.7924   5.8903   5.8903   6.0318   6.0318   6.1198   6.1198
     6.2986   6.2986   6.4452   6.4452   6.5865   6.5865   7.0838   7.0838
     9.9089   9.9089  10.1377  10.1377  10.3416  10.3416  10.4642  10.4642
    10.5881  10.5881  10.6834  10.6834  10.9940  10.9940  11.0078  11.0078
    11.0685  11.0685  11.1640  11.1640  11.1763  11.1763  11.4451  11.4451
    11.9246  11.9246  11.9845  11.9845  12.0335  12.0335  12.1599  12.1599
    12.2289  12.2289  12.4305  12.4305  12.4863  12.4863  12.6616  12.6616
    14.4107  14.4107  15.2004  15.2004  15.8010  15.8010  16.0479  16.0479

          k =-0.4855 0.0000-0.3932 ( 15436 PWs)   bands (ev):

   -75.1156 -75.1156 -75.1155 -75.1155 -75.0309 -75.0309 -75.0309 -75.0309
   -41.4376 -41.4376 -41.4376 -41.4376 -41.2931 -41.2931 -41.2930 -41.2930
   -41.2491 -41.2491 -41.2487 -41.2487 -41.1739 -41.1739 -41.1737 -41.1737
   -41.0959 -41.0959 -41.0955 -41.0955 -41.0913 -41.0913 -41.0909 -41.0909
   -10.6256 -10.6256 -10.5920 -10.5920  -9.7410  -9.7410  -9.7354  -9.7354
    -9.3357  -9.3357  -9.2726  -9.2726  -9.1313  -9.1313  -9.1271  -9.1271
     1.5436   1.5436   1.5746   1.5746   3.1287   3.1287   3.3165   3.3165
     3.4551   3.4551   3.5388   3.5388   3.6053   3.6053   3.7223   3.7223
     4.0022   4.0022   4.0372   4.0372   4.3152   4.3152   4.3372   4.3372
     4.7067   4.7067   5.0506   5.0506   5.5525   5.5525   5.5605   5.5605
     5.8060   5.8060   5.9005   5.9005   6.1284   6.1284   6.1738   6.1738
     6.2487   6.2487   6.3231   6.3231   6.4817   6.4817   6.6867   6.6867
    10.2346  10.2346  10.2451  10.2451  10.4315  10.4315  10.4391  10.4391
    10.7112  10.7112  10.7211  10.7211  10.8901  10.8901  10.8990  10.8990
    11.0184  11.0184  11.1057  11.1057  11.1512  11.1512  11.2458  11.2458
    11.7021  11.7021  11.7410  11.7410  11.9792  11.9792  12.0603  12.0603
    12.2189  12.2189  12.3451  12.3451  12.5103  12.5103  12.8181  12.8181
    15.4195  15.4195  15.5266  15.5266  16.2769  16.2771  16.2885  16.2885

     the Fermi energy is    10.5211 ev

!    total energy              =   -3488.69965938 Ry

     total all-electron energy =    -25094.005627 Ry
     estimated scf accuracy    <       0.00000004 Ry
     smearing contrib. (-TS)   =      -0.01101643 Ry
     internal energy E=F+TS    =   -3488.68864295 Ry

     The total energy is F=E-TS. E is the sum of the following terms:
     one-electron contribution =   -1483.99425615 Ry
     hartree contribution      =     869.05011653 Ry
     xc contribution           =    -368.40394775 Ry
     ewald contribution        =   -1547.58647041 Ry
     one-center paw contrib.   =    -957.75408517 Ry

     total magnetization       =    32.00 Bohr mag/cell
     absolute magnetization    =    32.09 Bohr mag/cell

     convergence has been achieved in  18 iterations

     negative rho (up, down):  0.000E+00 3.244E-03

     Forces acting on atoms (cartesian axes, Ry/au):

     atom    1 type  1   force =     0.00000000   -0.00000000    0.00000000
     atom    2 type  1   force =     0.00000000    0.00000000    0.00000000
     atom    3 type  1   force =     0.00000000    0.00000000    0.00000000
     atom    4 type  1   force =    -0.00000000   -0.00000000    0.00000000
     atom    5 type  1   force =    -0.00272695    0.00050059    0.00000000
     atom    6 type  1   force =     0.00272695   -0.00050059    0.00000000
     atom    7 type  1   force =    -0.00272695   -0.00050059   -0.00000000
     atom    8 type  1   force =     0.00272695    0.00050059   -0.00000000
     atom    9 type  2   force =    -0.00184270   -0.00298333   -0.00000000
     atom   10 type  2   force =     0.00184270    0.00298333   -0.00000000
     atom   11 type  2   force =    -0.00184270    0.00298333    0.00000000
     atom   12 type  2   force =     0.00184270   -0.00298333    0.00000000
     atom   13 type  3   force =    -0.00199441    0.00023321   -0.00000000
     atom   14 type  3   force =     0.00199441   -0.00023321   -0.00000000
     atom   15 type  3   force =    -0.00199441   -0.00023321    0.00000000
     atom   16 type  3   force =     0.00199441    0.00023321    0.00000000
     atom   17 type  3   force =     0.00107503   -0.00272999   -0.00000000
     atom   18 type  3   force =    -0.00107503    0.00272999   -0.00000000
     atom   19 type  3   force =     0.00107503    0.00272999    0.00000000
     atom   20 type  3   force =    -0.00107503   -0.00272999   -0.00000000
     atom   21 type  3   force =     0.00150689   -0.00089399   -0.00025060
     atom   22 type  3   force =    -0.00150689    0.00089399    0.00025060
     atom   23 type  3   force =     0.00150689    0.00089399    0.00025060
     atom   24 type  3   force =    -0.00150689   -0.00089399   -0.00025060
     atom   25 type  3   force =    -0.00150689    0.00089399   -0.00025060
     atom   26 type  3   force =     0.00150689   -0.00089399    0.00025060
     atom   27 type  3   force =    -0.00150689   -0.00089399    0.00025060
     atom   28 type  3   force =     0.00150689    0.00089399   -0.00025060

     Total force =     0.012472     Total SCF correction =     0.000525


     Computing stress (Cartesian axis) and pressure


     negative rho (up, down):  0.000E+00 3.244E-03
          total   stress  (Ry/bohr**3)                   (kbar)     P=        0.24
  -0.00001334   0.00000000   0.00000000           -1.96        0.00        0.00
   0.00000000  -0.00000562   0.00000000            0.00       -0.83        0.00
   0.00000000   0.00000000   0.00002395            0.00        0.00        3.52

     Energy error            =      6.5E-04
     Gradient error          =      3.0E-03
     Cell gradient error     =      2.4E-05


     number of scf cycles    =   9
     number of bfgs steps    =   8

     enthalpy old            =   -3488.6990076414 Ry
     enthalpy new            =   -3488.6996593828 Ry

     CASE: enthalpy_new < enthalpy_old

     new trust radius        =       0.0130754446 bohr
     new conv_thr            =       0.0000000298 Ry

     new unit-cell volume =   2089.86469 a.u.^3 (   309.68600 Ang^3 )
     density =      4.37049 g/cm^3

CELL_PARAMETERS (angstrom)
   4.898242103   0.000000000   0.000000000
   0.000000000  10.456093061   0.000000000
   0.000000000   0.000000000   6.046608923

ATOMIC_POSITIONS (angstrom)
Fe            0.0000000000       -0.0000000000        0.0000000000
Fe            2.4491210516        5.2280465306        0.0000000000
Fe           -0.0000000000        0.0000000000        3.0233044616
Fe            2.4491210516        5.2280465306        3.0233044616
Fe            0.1155769614        2.9006282417        4.5349566924
Fe            4.7826651418        7.5554648195        1.5116522308
Fe            2.5646980130        2.3274182889        1.5116522308
Fe            2.3335440902        8.1286747723        4.5349566924
Si            0.3552917363        4.2351189258        1.5116522308
Si            4.5429503670        6.2209741354        4.5349566924
Si            2.8044127879        0.9929276048        4.5349566924
Si            2.0938293153        9.4631654564        1.5116522308
O             1.1665770610        0.9783428607        4.5349566924
O             3.7316650422        9.4777502005        1.5116522308
O             3.6156981127        4.2497036699        1.5116522308
O             1.2825439906        6.2063893913        4.5349566924
O             1.4445221374        0.5419172080        1.5116522308
O             3.4537199658        9.9141758532        4.5349566924
O             3.8936431890        4.6861293226        4.5349566924
O             1.0045989142        5.7699637386        1.5116522308
O             1.0571937649        3.5046399263        2.8184999146
O             3.8410483383        6.9514531349        3.2281090087
O             3.5063148165        1.7234066043        3.2281090087
O             1.3919272867        8.7326864569        2.8184999146
O             3.8410483383        6.9514531349        5.8418043762
O             1.0571937649        3.5046399263        0.2048045470
O             1.3919272867        8.7326864569        0.2048045470
O             3.5063148165        1.7234066043        5.8418043762



     Writing output data file ./out/oliv.save/
     NEW-OLD atomic charge density approx. for the potential

     Check: negative core charge=   -0.000002

     negative rho (up, down):  0.000E+00 3.244E-03
     extrapolated charge  239.95929, renormalised to  240.00000
     Generating pointlists ...

     total cpu time spent up to now is    18706.7 secs

     Self-consistent Calculation

     iteration #  1     ecut=    60.00 Ry     beta= 0.30
     Davidson diagonalization with overlap
     ethr =  1.00E-06,  avg # of iterations =  6.1

     negative rho (up, down):  0.000E+00 3.234E-03

     total cpu time spent up to now is    18892.3 secs

     total energy              =   -3488.69981911 Ry
     estimated scf accuracy    <       0.00025948 Ry

     total magnetization       =    32.00 Bohr mag/cell
     absolute magnetization    =    32.09 Bohr mag/cell

     iteration #  2     ecut=    60.00 Ry     beta= 0.30
     Davidson diagonalization with overlap
     ethr =  1.08E-07,  avg # of iterations =  3.8

     negative rho (up, down):  0.000E+00 3.238E-03

     total cpu time spent up to now is    18957.6 secs

     total energy              =   -3488.69990696 Ry
     estimated scf accuracy    <       0.00056241 Ry

     total magnetization       =    32.00 Bohr mag/cell
     absolute magnetization    =    32.10 Bohr mag/cell

     iteration #  3     ecut=    60.00 Ry     beta= 0.30
     Davidson diagonalization with overlap
     ethr =  1.08E-07,  avg # of iterations =  2.0

     negative rho (up, down):  0.000E+00 3.238E-03

     total cpu time spent up to now is    18994.7 secs

     total energy              =   -3488.69991387 Ry
     estimated scf accuracy    <       0.00183599 Ry

     total magnetization       =    32.00 Bohr mag/cell
     absolute magnetization    =    32.10 Bohr mag/cell

     iteration #  4     ecut=    60.00 Ry     beta= 0.30
     Davidson diagonalization with overlap
     ethr =  1.08E-07,  avg # of iterations =  1.2

     negative rho (up, down):  0.000E+00 3.239E-03

     total cpu time spent up to now is    19045.4 secs

     total energy              =   -3488.69995558 Ry
     estimated scf accuracy    <       0.00005626 Ry

     total magnetization       =    32.00 Bohr mag/cell
     absolute magnetization    =    32.10 Bohr mag/cell

     iteration #  5     ecut=    60.00 Ry     beta= 0.30
     Davidson diagonalization with overlap
     ethr =  2.34E-08,  avg # of iterations =  2.2

     negative rho (up, down):  0.000E+00 3.238E-03

     total cpu time spent up to now is    19086.5 secs

     total energy              =   -3488.69996815 Ry
     estimated scf accuracy    <       0.00001016 Ry

     total magnetization       =    32.00 Bohr mag/cell
     absolute magnetization    =    32.10 Bohr mag/cell

     iteration #  6     ecut=    60.00 Ry     beta= 0.30
     Davidson diagonalization with overlap
     ethr =  4.23E-09,  avg # of iterations =  4.4

     negative rho (up, down):  0.000E+00 3.237E-03

     total cpu time spent up to now is    19186.4 secs

     total energy              =   -3488.69997099 Ry
     estimated scf accuracy    <       0.00000663 Ry

     total magnetization       =    32.00 Bohr mag/cell
     absolute magnetization    =    32.10 Bohr mag/cell

     iteration #  7     ecut=    60.00 Ry     beta= 0.30
     Davidson diagonalization with overlap
     ethr =  2.76E-09,  avg # of iterations =  2.0

     negative rho (up, down):  0.000E+00 3.236E-03

     total cpu time spent up to now is    19248.4 secs

     total energy              =   -3488.69997207 Ry
     estimated scf accuracy    <       0.00000165 Ry

     total magnetization       =    32.00 Bohr mag/cell
     absolute magnetization    =    32.10 Bohr mag/cell

     iteration #  8     ecut=    60.00 Ry     beta= 0.30
     Davidson diagonalization with overlap
     ethr =  6.86E-10,  avg # of iterations =  6.2

     negative rho (up, down):  0.000E+00 3.236E-03

     total cpu time spent up to now is    19365.9 secs

     total energy              =   -3488.69997293 Ry
     estimated scf accuracy    <       0.00000550 Ry

     total magnetization       =    32.00 Bohr mag/cell
     absolute magnetization    =    32.10 Bohr mag/cell

     iteration #  9     ecut=    60.00 Ry     beta= 0.30
     Davidson diagonalization with overlap
     ethr =  6.86E-10,  avg # of iterations =  2.0

     negative rho (up, down):  0.000E+00 3.236E-03

     total cpu time spent up to now is    19410.8 secs

     total energy              =   -3488.69997253 Ry
     estimated scf accuracy    <       0.00000175 Ry

     total magnetization       =    32.00 Bohr mag/cell
     absolute magnetization    =    32.10 Bohr mag/cell

     iteration # 10     ecut=    60.00 Ry     beta= 0.30
     Davidson diagonalization with overlap
     ethr =  6.86E-10,  avg # of iterations =  4.5

     negative rho (up, down):  0.000E+00 3.237E-03

     total cpu time spent up to now is    19466.1 secs

     total energy              =   -3488.69997328 Ry
     estimated scf accuracy    <       0.00000065 Ry

     total magnetization       =    32.00 Bohr mag/cell
     absolute magnetization    =    32.10 Bohr mag/cell

     iteration # 11     ecut=    60.00 Ry     beta= 0.30
     Davidson diagonalization with overlap
     ethr =  2.73E-10,  avg # of iterations =  2.0

     negative rho (up, down):  0.000E+00 3.237E-03

     total cpu time spent up to now is    19524.5 secs

     total energy              =   -3488.69997303 Ry
     estimated scf accuracy    <       0.00000057 Ry

     total magnetization       =    32.00 Bohr mag/cell
     absolute magnetization    =    32.10 Bohr mag/cell

     iteration # 12     ecut=    60.00 Ry     beta= 0.30
     Davidson diagonalization with overlap
     ethr =  2.37E-10,  avg # of iterations =  4.6

     negative rho (up, down):  0.000E+00 3.237E-03

     total cpu time spent up to now is    19606.8 secs

     total energy              =   -3488.69997323 Ry
     estimated scf accuracy    <       0.00000016 Ry

     total magnetization       =    32.00 Bohr mag/cell
     absolute magnetization    =    32.10 Bohr mag/cell

     iteration # 13     ecut=    60.00 Ry     beta= 0.30
     Davidson diagonalization with overlap
     ethr =  6.52E-11,  avg # of iterations =  4.9

     negative rho (up, down):  0.000E+00 3.237E-03

     total cpu time spent up to now is    19692.1 secs

     total energy              =   -3488.69997326 Ry
     estimated scf accuracy    <       0.00000008 Ry

     total magnetization       =    32.00 Bohr mag/cell
     absolute magnetization    =    32.10 Bohr mag/cell

     iteration # 14     ecut=    60.00 Ry     beta= 0.30
     Davidson diagonalization with overlap
     ethr =  3.13E-11,  avg # of iterations =  6.8

     negative rho (up, down):  0.000E+00 3.237E-03

     total cpu time spent up to now is    19811.4 secs

     total energy              =   -3488.69997335 Ry
     estimated scf accuracy    <       0.00000010 Ry

     total magnetization       =    32.00 Bohr mag/cell
     absolute magnetization    =    32.10 Bohr mag/cell

     iteration # 15     ecut=    60.00 Ry     beta= 0.30
     Davidson diagonalization with overlap
     ethr =  3.13E-11,  avg # of iterations =  2.0

     negative rho (up, down):  0.000E+00 3.237E-03

     Magnetic moment per site:
     atom:    1    charge:   13.3643    magn:    3.3214    constr:    0.0000
     atom:    2    charge:   13.3643    magn:    3.3214    constr:    0.0000
     atom:    3    charge:   13.3643    magn:    3.3214    constr:    0.0000
     atom:    4    charge:   13.3643    magn:    3.3214    constr:    0.0000
     atom:    5    charge:   13.3280    magn:    3.4126    constr:    0.0000
     atom:    6    charge:   13.3280    magn:    3.4126    constr:    0.0000
     atom:    7    charge:   13.3280    magn:    3.4126    constr:    0.0000
     atom:    8    charge:   13.3280    magn:    3.4126    constr:    0.0000
     atom:    9    charge:    0.3883    magn:    0.0043    constr:    0.0000
     atom:   10    charge:    0.3883    magn:    0.0043    constr:    0.0000
     atom:   11    charge:    0.3883    magn:    0.0043    constr:    0.0000
     atom:   12    charge:    0.3883    magn:    0.0043    constr:    0.0000
     atom:   13    charge:    4.0297    magn:    0.1049    constr:    0.0000
     atom:   14    charge:    4.0297    magn:    0.1049    constr:    0.0000
     atom:   15    charge:    4.0297    magn:    0.1049    constr:    0.0000
     atom:   16    charge:    4.0297    magn:    0.1049    constr:    0.0000
     atom:   17    charge:    4.0215    magn:    0.1180    constr:    0.0000
     atom:   18    charge:    4.0215    magn:    0.1180    constr:    0.0000
     atom:   19    charge:    4.0215    magn:    0.1180    constr:    0.0000
     atom:   20    charge:    4.0215    magn:    0.1180    constr:    0.0000
     atom:   21    charge:    4.0209    magn:    0.1200    constr:    0.0000
     atom:   22    charge:    4.0209    magn:    0.1200    constr:    0.0000
     atom:   23    charge:    4.0209    magn:    0.1200    constr:    0.0000
     atom:   24    charge:    4.0209    magn:    0.1200    constr:    0.0000
     atom:   25    charge:    4.0209    magn:    0.1200    constr:    0.0000
     atom:   26    charge:    4.0209    magn:    0.1200    constr:    0.0000
     atom:   27    charge:    4.0209    magn:    0.1200    constr:    0.0000
     atom:   28    charge:    4.0209    magn:    0.1200    constr:    0.0000

     total cpu time spent up to now is    19861.1 secs

     End of self-consistent calculation

 ------ SPIN UP ------------


          k = 0.0000 0.0000 0.0000 ( 15339 PWs)   bands (ev):

   -79.3297 -79.3297 -79.3297 -79.3297 -79.1078 -79.1078 -79.1059 -79.1058
   -46.0051 -46.0050 -46.0038 -46.0038 -45.5895 -45.5895 -45.5832 -45.5832
   -45.2528 -45.2527 -45.2525 -45.2525 -45.0734 -45.0733 -45.0708 -45.0708
   -44.8653 -44.8653 -44.8645 -44.8644 -44.8566 -44.8566 -44.8284 -44.8284
   -11.3527 -11.1303 -10.8848 -10.7350  -9.7650  -9.7246  -9.7124  -9.6613
    -9.6273  -9.5287  -9.4668  -9.4582  -9.4185  -9.3861  -9.3821  -9.3183
     1.0426   1.0609   1.5599   1.5688   1.6453   1.7186   2.3323   2.3331
     2.3391   2.8390   2.9253   3.0451   3.1391   3.5877   3.7695   3.7764
     3.9978   4.0694   4.0971   4.1345   4.2579   4.3512   4.3939   4.4124
     4.4187   4.5165   4.5465   4.5493   4.6308   4.6876   4.7415   4.7599
     4.8669   4.9453   4.9571   5.0079   5.2043   5.2047   5.3091   5.3771
     5.3901   5.7061   5.9864   5.9889   6.0227   6.1995   6.2229   6.3727
     6.7620   6.9960   7.0425   7.0646   7.1024   7.1790   7.1900   7.3499
     7.3603   7.4256   7.4486   7.5271   7.5447   7.5556   7.8200   7.8628
     7.8913   8.0031   8.0051   8.0491   8.0627   8.0739   8.0765   8.1939
     8.3271   8.3374   8.3665   8.4201   8.6435   8.7236   8.8777   8.9540
     8.9896   9.0422   9.2268   9.2283   9.2910   9.3958   9.4623   9.6414
    11.3787  13.3816  13.9446  15.2942  15.8132  16.2496  16.3146  16.3545

          k = 0.0000 0.0000-0.3931 ( 15392 PWs)   bands (ev):

   -79.3298 -79.3298 -79.3298 -79.3298 -79.1069 -79.1069 -79.1068 -79.1068
   -46.0045 -46.0045 -46.0045 -46.0045 -45.5864 -45.5864 -45.5864 -45.5864
   -45.2527 -45.2527 -45.2526 -45.2526 -45.0721 -45.0721 -45.0721 -45.0721
   -44.8649 -44.8649 -44.8649 -44.8649 -44.8426 -44.8426 -44.8426 -44.8426
   -11.0663 -11.0663 -10.9770 -10.9770  -9.7269  -9.7269  -9.7070  -9.7070
    -9.6548  -9.6548  -9.4691  -9.4691  -9.3926  -9.3926  -9.3103  -9.3103
     1.3288   1.3288   1.4037   1.4037   2.0769   2.0769   2.1434   2.1434
     2.7592   2.7592   3.2155   3.2155   3.4761   3.4761   3.7073   3.7073
     3.7593   3.7593   3.9901   3.9901   4.1509   4.1509   4.3520   4.3520
     4.4105   4.4105   4.5000   4.5000   4.7243   4.7243   4.7849   4.7849
     4.8500   4.8500   5.0662   5.0662   5.0968   5.0968   5.4330   5.4330
     5.6391   5.6391   5.6874   5.6874   5.8262   5.8262   5.9444   5.9444
     7.0534   7.0534   7.0727   7.0727   7.2077   7.2077   7.2303   7.2303
     7.5243   7.5243   7.5423   7.5423   7.6063   7.6063   7.7620   7.7620
     7.9986   7.9986   8.0242   8.0242   8.0960   8.0960   8.1456   8.1456
     8.4099   8.4099   8.5257   8.5257   8.7390   8.7390   8.7546   8.7546
     8.8898   8.8898   8.9228   8.9228   9.2202   9.2202   9.4679   9.4679
    13.2993  13.2993  14.4311  14.4311  15.1701  15.1701  16.6350  16.6352

          k =-0.4853 0.0000 0.0000 ( 15374 PWs)   bands (ev):

   -79.3298 -79.3298 -79.3297 -79.3297 -79.1078 -79.1078 -79.1058 -79.1058
   -46.0044 -46.0044 -46.0044 -46.0044 -45.5895 -45.5895 -45.5832 -45.5832
   -45.2527 -45.2527 -45.2526 -45.2526 -45.0734 -45.0734 -45.0708 -45.0708
   -44.8649 -44.8649 -44.8648 -44.8648 -44.8566 -44.8566 -44.8284 -44.8284
   -10.9775 -10.9775 -10.7037 -10.7037 -10.0813 -10.0813  -9.8511  -9.8511
    -9.5760  -9.5760  -9.4264  -9.4264  -9.4114  -9.4114  -9.3582  -9.3582
     1.1220   1.1220   1.2272   1.2272   2.6819   2.6819   2.7664   2.7664
     2.9563   2.9563   3.0293   3.0293   3.2918   3.2918   3.3446   3.3446
     3.5754   3.5754   3.5987   3.5987   3.7342   3.7342   4.2698   4.2698
     4.3903   4.3903   4.4189   4.4189   4.8800   4.8800   4.8809   4.8809
     4.9902   4.9902   5.0938   5.0938   5.2369   5.2369   5.5804   5.5804
     5.6436   5.6436   5.8003   5.8003   6.0232   6.0232   6.6921   6.6921
     7.0013   7.0013   7.0604   7.0604   7.1252   7.1252   7.2458   7.2458
     7.3310   7.3310   7.3345   7.3345   7.5074   7.5074   7.7445   7.7445
     7.8635   7.8635   8.0518   8.0518   8.1160   8.1160   8.2056   8.2056
     8.5345   8.5345   8.7358   8.7358   8.7400   8.7400   8.8412   8.8412
     8.9634   8.9634   9.0277   9.0277   9.2000   9.2000   9.3937   9.3937
    13.9615  13.9615  14.8453  14.8453  15.2415  15.2415  15.4593  15.4593

          k =-0.4853 0.0000-0.3931 ( 15436 PWs)   bands (ev):

   -79.3298 -79.3298 -79.3298 -79.3298 -79.1069 -79.1069 -79.1069 -79.1069
   -46.0045 -46.0045 -46.0045 -46.0045 -45.5864 -45.5864 -45.5864 -45.5864
   -45.2527 -45.2527 -45.2526 -45.2526 -45.0721 -45.0721 -45.0721 -45.0721
   -44.8649 -44.8649 -44.8648 -44.8648 -44.8426 -44.8426 -44.8426 -44.8426
   -10.8385 -10.8385 -10.8058 -10.8058  -9.9743  -9.9743  -9.9711  -9.9711
    -9.5719  -9.5719  -9.5139  -9.5139  -9.3724  -9.3724  -9.3687  -9.3687
     1.2847   1.2847   1.2889   1.2889   2.7253   2.7253   2.9065   2.9065
     3.0806   3.0806   3.1452   3.1452   3.2015   3.2015   3.3814   3.3814
     3.5435   3.5435   3.6295   3.6295   3.7583   3.7583   3.8389   3.8389
     4.2899   4.2899   4.5642   4.5642   5.0158   5.0158   5.0858   5.0858
     5.1427   5.1427   5.2433   5.2433   5.2600   5.2600   5.3333   5.3333
     5.5051   5.5051   5.6004   5.6004   5.9033   5.9033   6.0716   6.0716
     7.0342   7.0342   7.1511   7.1511   7.2989   7.2989   7.3037   7.3037
     7.3160   7.3160   7.4650   7.4650   7.6986   7.6986   7.7195   7.7195
     7.7762   7.7762   7.9225   7.9225   7.9802   7.9802   8.0938   8.0938
     8.4214   8.4214   8.4362   8.4362   8.4406   8.4406   8.8155   8.8155
     9.0151   9.0151   9.0700   9.0700   9.1741   9.1741   9.5844   9.5844
    14.9511  14.9511  15.0064  15.0064  15.7838  15.8014  15.8031  15.8428

 ------ SPIN DOWN ----------


          k = 0.0000 0.0000 0.0000 ( 15339 PWs)   bands (ev):

   -75.1090 -75.1090 -75.1089 -75.1087 -75.0286 -75.0285 -75.0264 -75.0263
   -41.4315 -41.4314 -41.4295 -41.4295 -41.2940 -41.2940 -41.2850 -41.2850
   -41.2445 -41.2443 -41.2437 -41.2436 -41.1726 -41.1722 -41.1684 -41.1683
   -41.1086 -41.1085 -41.0842 -41.0841 -41.0832 -41.0830 -41.0753 -41.0753
   -11.1369 -10.9179 -10.6707 -10.5238  -9.5439  -9.4971  -9.4801  -9.4298
    -9.3871  -9.2789  -9.2231  -9.2113  -9.1642  -9.1308  -9.1303  -9.0655
     1.3115   1.3148   1.7768   1.8503   1.9111   2.0824   2.6729   2.7016
     2.7670   3.2250   3.3283   3.3324   3.5273   4.0318   4.0779   4.0995
     4.4406   4.6067   4.7540   4.8027   4.8161   4.9220   4.9616   4.9620
     5.0000   5.1274   5.1549   5.1669   5.3457   5.3483   5.4865   5.5133
     5.5639   5.5777   5.7204   5.7372   5.7729   5.8179   5.8336   5.9438
     6.2553   6.3315   6.4555   6.4870   6.6626   6.6941   6.7455   6.9271
     9.8941   9.9357  10.2032  10.2178  10.3232  10.3794  10.4335  10.4357
    10.4495  10.5751  10.6354  10.8564  10.9388  10.9554  10.9697  10.9835
    10.9996  11.0724  11.0847  11.1876  11.1932  11.2328  11.3945  11.4022
    11.8487  11.8873  11.9554  12.0057  12.0188  12.1679  12.2226  12.2929
    12.2983  12.3085  12.3626  12.4147  12.4695  12.4729  12.5401  12.8040
    12.8069  13.9660  14.4585  15.7384  16.1723  16.6961  16.7377  16.7454

          k = 0.0000 0.0000-0.3931 ( 15392 PWs)   bands (ev):

   -75.1090 -75.1090 -75.1089 -75.1089 -75.0275 -75.0275 -75.0275 -75.0275
   -41.4306 -41.4306 -41.4306 -41.4306 -41.2894 -41.2894 -41.2894 -41.2894
   -41.2441 -41.2441 -41.2439 -41.2439 -41.1704 -41.1704 -41.1702 -41.1702
   -41.0924 -41.0924 -41.0922 -41.0922 -41.0837 -41.0837 -41.0835 -41.0835
   -10.8519 -10.8519 -10.7647 -10.7647  -9.4930  -9.4930  -9.4808  -9.4808
    -9.4126  -9.4126  -9.2216  -9.2216  -9.1406  -9.1406  -9.0584  -9.0584
     1.5868   1.5868   1.6518   1.6518   2.4509   2.4509   2.4937   2.4937
     3.1237   3.1237   3.5502   3.5502   3.8447   3.8447   4.0747   4.0747
     4.2826   4.2826   4.5454   4.5454   4.7724   4.7724   4.8632   4.8632
     4.9492   4.9492   5.1485   5.1485   5.3711   5.3711   5.3849   5.3849
     5.6355   5.6355   5.7725   5.7725   5.8163   5.8163   6.0278   6.0278
     6.0995   6.0995   6.1636   6.1636   6.5782   6.5782   6.7049   6.7049
    10.3203  10.3203  10.3566  10.3566  10.4101  10.4101  10.4205  10.4205
    10.6004  10.6004  10.7166  10.7166  10.8582  10.8582  10.8945  10.8945
    10.9854  10.9854  11.0365  11.0365  11.1981  11.1981  11.3076  11.3076
    11.7717  11.7717  11.8975  11.8975  12.1821  12.1821  12.2072  12.2072
    12.3286  12.3286  12.3806  12.3806  12.5850  12.5850  12.6515  12.6515
    13.9127  13.9127  14.9463  14.9463  15.6776  15.6776  16.9848  16.9848

          k =-0.4853 0.0000 0.0000 ( 15374 PWs)   bands (ev):

   -75.1090 -75.1090 -75.1089 -75.1089 -75.0287 -75.0287 -75.0264 -75.0264
   -41.4305 -41.4305 -41.4305 -41.4305 -41.2941 -41.2941 -41.2850 -41.2850
   -41.2441 -41.2441 -41.2438 -41.2438 -41.1724 -41.1724 -41.1683 -41.1683
   -41.1085 -41.1085 -41.0837 -41.0837 -41.0836 -41.0836 -41.0753 -41.0753
   -10.7654 -10.7654 -10.4839 -10.4839  -9.8561  -9.8561  -9.6274  -9.6274
    -9.3270  -9.3270  -9.1730  -9.1730  -9.1622  -9.1622  -9.1132  -9.1132
     1.4167   1.4167   1.4629   1.4629   3.0126   3.0126   3.0838   3.0838
     3.3718   3.3718   3.4245   3.4245   3.7160   3.7160   3.8034   3.8034
     4.0000   4.0000   4.0802   4.0802   4.1292   4.1292   4.6146   4.6146
     5.0229   5.0229   5.0867   5.0867   5.5805   5.5805   5.6596   5.6596
     5.7925   5.7925   5.8913   5.8913   6.0314   6.0314   6.1304   6.1304
     6.3062   6.3062   6.4487   6.4487   6.5812   6.5812   7.0942   7.0942
     9.9130   9.9130  10.1446  10.1446  10.3480  10.3480  10.4689  10.4689
    10.5962  10.5962  10.6871  10.6871  10.9977  10.9977  11.0125  11.0125
    11.0734  11.0734  11.1687  11.1687  11.1791  11.1791  11.4471  11.4471
    11.9247  11.9247  11.9926  11.9926  12.0430  12.0430  12.1684  12.1684
    12.2341  12.2341  12.4345  12.4345  12.4882  12.4882  12.6650  12.6650
    14.4088  14.4088  15.1927  15.1927  15.8068  15.8068  16.0636  16.0636

          k =-0.4853 0.0000-0.3931 ( 15436 PWs)   bands (ev):

   -75.1090 -75.1090 -75.1090 -75.1090 -75.0276 -75.0276 -75.0276 -75.0276
   -41.4306 -41.4306 -41.4306 -41.4306 -41.2895 -41.2895 -41.2893 -41.2893
   -41.2441 -41.2441 -41.2438 -41.2438 -41.1704 -41.1704 -41.1702 -41.1702
   -41.0924 -41.0924 -41.0922 -41.0922 -41.0837 -41.0837 -41.0835 -41.0835
   -10.6235 -10.6235 -10.5907 -10.5907  -9.7503  -9.7503  -9.7443  -9.7443
    -9.3234  -9.3234  -9.2651  -9.2651  -9.1213  -9.1213  -9.1210  -9.1210
     1.5521   1.5521   1.5819   1.5819   3.1273   3.1273   3.3178   3.3178
     3.4597   3.4597   3.5402   3.5402   3.6045   3.6045   3.7220   3.7220
     4.0049   4.0049   4.0341   4.0341   4.3230   4.3230   4.3357   4.3357
     4.7182   4.7182   5.0506   5.0506   5.5579   5.5579   5.5685   5.5685
     5.8035   5.8035   5.9067   5.9067   6.1307   6.1307   6.1761   6.1761
     6.2560   6.2560   6.3291   6.3291   6.4843   6.4843   6.6941   6.6941
    10.2412  10.2412  10.2513  10.2513  10.4370  10.4370  10.4460  10.4460
    10.7133  10.7133  10.7232  10.7232  10.8964  10.8964  10.9013  10.9013
    11.0235  11.0235  11.1107  11.1107  11.1559  11.1559  11.2482  11.2482
    11.7120  11.7120  11.7494  11.7494  11.9852  11.9852  12.0629  12.0629
    12.2205  12.2205  12.3485  12.3485  12.5155  12.5155  12.8231  12.8231
    15.4049  15.4049  15.5278  15.5278  16.2825  16.2826  16.3013  16.3013

     the Fermi energy is    10.5270 ev

!    total energy              =   -3488.69997335 Ry

     total all-electron energy =    -25094.005941 Ry
     estimated scf accuracy    <       0.00000003 Ry
     smearing contrib. (-TS)   =      -0.01103356 Ry
     internal energy E=F+TS    =   -3488.68893979 Ry

     The total energy is F=E-TS. E is the sum of the following terms:
     one-electron contribution =   -1483.99383640 Ry
     hartree contribution      =     869.08553939 Ry
     xc contribution           =    -368.40661526 Ry
     ewald contribution        =   -1547.61963003 Ry
     one-center paw contrib.   =    -957.75439749 Ry

     total magnetization       =    32.00 Bohr mag/cell
     absolute magnetization    =    32.10 Bohr mag/cell

     convergence has been achieved in  15 iterations

     negative rho (up, down):  0.000E+00 3.237E-03

     Forces acting on atoms (cartesian axes, Ry/au):

     atom    1 type  1   force =     0.00000000    0.00000000    0.00000000
     atom    2 type  1   force =     0.00000000    0.00000000    0.00000000
     atom    3 type  1   force =     0.00000000    0.00000000    0.00000000
     atom    4 type  1   force =    -0.00000000   -0.00000000    0.00000000
     atom    5 type  1   force =    -0.00279140    0.00159901   -0.00000000
     atom    6 type  1   force =     0.00279140   -0.00159901    0.00000000
     atom    7 type  1   force =    -0.00279140   -0.00159901    0.00000000
     atom    8 type  1   force =     0.00279140    0.00159901    0.00000000
     atom    9 type  2   force =    -0.00005598   -0.00106926    0.00000000
     atom   10 type  2   force =     0.00005598    0.00106926    0.00000000
     atom   11 type  2   force =    -0.00005598    0.00106926   -0.00000000
     atom   12 type  2   force =     0.00005598   -0.00106926   -0.00000000
     atom   13 type  3   force =    -0.00112125    0.00034249   -0.00000000
     atom   14 type  3   force =     0.00112125   -0.00034249   -0.00000000
     atom   15 type  3   force =    -0.00112125   -0.00034249    0.00000000
     atom   16 type  3   force =     0.00112125    0.00034249    0.00000000
     atom   17 type  3   force =     0.00152500   -0.00097335    0.00000000
     atom   18 type  3   force =    -0.00152500    0.00097335    0.00000000
     atom   19 type  3   force =     0.00152500    0.00097335    0.00000000
     atom   20 type  3   force =    -0.00152500   -0.00097335    0.00000000
     atom   21 type  3   force =     0.00065616   -0.00178569    0.00052263
     atom   22 type  3   force =    -0.00065616    0.00178569   -0.00052263
     atom   23 type  3   force =     0.00065616    0.00178569   -0.00052263
     atom   24 type  3   force =    -0.00065616   -0.00178569    0.00052263
     atom   25 type  3   force =    -0.00065616    0.00178569    0.00052263
     atom   26 type  3   force =     0.00065616   -0.00178569   -0.00052263
     atom   27 type  3   force =    -0.00065616   -0.00178569   -0.00052263
     atom   28 type  3   force =     0.00065616    0.00178569    0.00052263

     Total force =     0.009783     Total SCF correction =     0.000307


     Computing stress (Cartesian axis) and pressure


     negative rho (up, down):  0.000E+00 3.237E-03
          total   stress  (Ry/bohr**3)                   (kbar)     P=        0.38
  -0.00002349   0.00000000   0.00000000           -3.46        0.00        0.00
   0.00000000   0.00000728   0.00000000            0.00        1.07        0.00
   0.00000000   0.00000000   0.00002404            0.00        0.00        3.54

     Energy error            =      3.1E-04
     Gradient error          =      2.8E-03
     Cell gradient error     =      2.4E-05


     number of scf cycles    =  10
     number of bfgs steps    =   9

     enthalpy old            =   -3488.6996593828 Ry
     enthalpy new            =   -3488.6999733541 Ry

     CASE: enthalpy_new < enthalpy_old

     new trust radius        =       0.0127345623 bohr
     new conv_thr            =       0.0000000279 Ry

     new unit-cell volume =   2089.17864 a.u.^3 (   309.58433 Ang^3 )
     density =      4.37192 g/cm^3

CELL_PARAMETERS (angstrom)
   4.895190925   0.000000000   0.000000000
   0.000000000  10.452247935   0.000000000
   0.000000000   0.000000000   6.050616658

ATOMIC_POSITIONS (angstrom)
Fe            0.0000000000       -0.0000000000        0.0000000000
Fe            2.4475954627        5.2261239673        0.0000000000
Fe           -0.0000000000        0.0000000000        3.0253083291
Fe            2.4475954627        5.2261239673        3.0253083291
Fe            0.1122524583        2.9004526759        4.5379624936
Fe            4.7829384671        7.5517952588        1.5126541645
Fe            2.5598479211        2.3256712914        1.5126541645
Fe            2.3353430044        8.1265766433        4.5379624936
Si            0.3520975079        4.2275170127        1.5126541645
Si            4.5430934176        6.2247309219        4.5379624936
Si            2.7996929706        0.9986069546        4.5379624936
Si            2.0954979549        9.4536409801        1.5126541645
O             1.1623151975        0.9804869167        4.5379624936
O             3.7328757279        9.4717610180        1.5126541645
O             3.6099106602        4.2456370506        1.5126541645
O             1.2852802652        6.2066108841        4.5379624936
O             1.4462025480        0.5359915013        1.5126541645
O             3.4489883775        9.9162564334        4.5379624936
O             3.8937980107        4.6901324661        4.5379624936
O             1.0013929148        5.7621154686        1.5126541645
O             1.0575065996        3.5008282256        2.8198742600
O             3.8376843258        6.9514197091        3.2307423981
O             3.5051020623        1.7252957418        3.2307423981
O             1.3900888631        8.7269521929        2.8198742600
O             3.8376843258        6.9514197091        5.8451825890
O             1.0575065996        3.5008282256        0.2054340691
O             1.3900888631        8.7269521929        0.2054340691
O             3.5051020623        1.7252957418        5.8451825890



     Writing output data file ./out/oliv.save/
     NEW-OLD atomic charge density approx. for the potential

     Check: negative core charge=   -0.000002

     negative rho (up, down):  0.000E+00 3.240E-03
     extrapolated charge  239.92119, renormalised to  240.00000
     Generating pointlists ...

     total cpu time spent up to now is    19906.7 secs

     Self-consistent Calculation

     iteration #  1     ecut=    60.00 Ry     beta= 0.30
     Davidson diagonalization with overlap
     ethr =  1.00E-06,  avg # of iterations =  7.6

     negative rho (up, down):  0.000E+00 3.224E-03

     total cpu time spent up to now is    20079.4 secs

     total energy              =   -3488.69973872 Ry
     estimated scf accuracy    <       0.00069344 Ry

     total magnetization       =    32.00 Bohr mag/cell
     absolute magnetization    =    32.09 Bohr mag/cell

     iteration #  2     ecut=    60.00 Ry     beta= 0.30
     Davidson diagonalization with overlap
     ethr =  2.89E-07,  avg # of iterations =  4.0

     negative rho (up, down):  0.000E+00 3.228E-03

     total cpu time spent up to now is    20165.8 secs

     total energy              =   -3488.70014369 Ry
     estimated scf accuracy    <       0.00090151 Ry

     total magnetization       =    32.00 Bohr mag/cell
     absolute magnetization    =    32.10 Bohr mag/cell

     iteration #  3     ecut=    60.00 Ry     beta= 0.30
     Davidson diagonalization with overlap
     ethr =  2.89E-07,  avg # of iterations =  2.0

     negative rho (up, down):  0.000E+00 3.231E-03

     total cpu time spent up to now is    20239.0 secs

     total energy              =   -3488.70011517 Ry
     estimated scf accuracy    <       0.00304475 Ry

     total magnetization       =    32.00 Bohr mag/cell
     absolute magnetization    =    32.10 Bohr mag/cell

     iteration #  4     ecut=    60.00 Ry     beta= 0.30
     Davidson diagonalization with overlap
     ethr =  2.89E-07,  avg # of iterations =  1.0

     negative rho (up, down):  0.000E+00 3.233E-03

     total cpu time spent up to now is    20302.5 secs

     total energy              =   -3488.70019607 Ry
     estimated scf accuracy    <       0.00022935 Ry

     total magnetization       =    32.00 Bohr mag/cell
     absolute magnetization    =    32.10 Bohr mag/cell

     iteration #  5     ecut=    60.00 Ry     beta= 0.30
     Davidson diagonalization with overlap
     ethr =  9.56E-08,  avg # of iterations =  2.0

     negative rho (up, down):  0.000E+00 3.232E-03

     total cpu time spent up to now is    20366.9 secs

     total energy              =   -3488.70022626 Ry
     estimated scf accuracy    <       0.00003238 Ry

     total magnetization       =    32.00 Bohr mag/cell
     absolute magnetization    =    32.10 Bohr mag/cell

     iteration #  6     ecut=    60.00 Ry     beta= 0.30
     Davidson diagonalization with overlap
     ethr =  1.35E-08,  avg # of iterations =  4.1

     negative rho (up, down):  0.000E+00 3.230E-03

     total cpu time spent up to now is    20482.4 secs

     total energy              =   -3488.70023955 Ry
     estimated scf accuracy    <       0.00002683 Ry

     total magnetization       =    32.00 Bohr mag/cell
     absolute magnetization    =    32.10 Bohr mag/cell

     iteration #  7     ecut=    60.00 Ry     beta= 0.30
     Davidson diagonalization with overlap
     ethr =  1.12E-08,  avg # of iterations =  2.1

     negative rho (up, down):  0.000E+00 3.228E-03

     total cpu time spent up to now is    20564.2 secs

     total energy              =   -3488.70024665 Ry
     estimated scf accuracy    <       0.00000321 Ry

     total magnetization       =    32.00 Bohr mag/cell
     absolute magnetization    =    32.10 Bohr mag/cell

     iteration #  8     ecut=    60.00 Ry     beta= 0.30
     Davidson diagonalization with overlap
     ethr =  1.34E-09,  avg # of iterations =  6.9

     negative rho (up, down):  0.000E+00 3.229E-03

     total cpu time spent up to now is    20663.7 secs

     total energy              =   -3488.70024751 Ry
     estimated scf accuracy    <       0.00001437 Ry

     total magnetization       =    32.00 Bohr mag/cell
     absolute magnetization    =    32.10 Bohr mag/cell

     iteration #  9     ecut=    60.00 Ry     beta= 0.30
     Davidson diagonalization with overlap
     ethr =  1.34E-09,  avg # of iterations =  2.0

     negative rho (up, down):  0.000E+00 3.230E-03

     total cpu time spent up to now is    20721.0 secs

     total energy              =   -3488.70024484 Ry
     estimated scf accuracy    <       0.00000700 Ry

     total magnetization       =    32.00 Bohr mag/cell
     absolute magnetization    =    32.10 Bohr mag/cell

     iteration # 10     ecut=    60.00 Ry     beta= 0.30
     Davidson diagonalization with overlap
     ethr =  1.34E-09,  avg # of iterations =  5.4

     negative rho (up, down):  0.000E+00 3.230E-03

     total cpu time spent up to now is    20818.8 secs

     total energy              =   -3488.70024688 Ry
     estimated scf accuracy    <       0.00000091 Ry

     total magnetization       =    32.00 Bohr mag/cell
     absolute magnetization    =    32.10 Bohr mag/cell

     iteration # 11     ecut=    60.00 Ry     beta= 0.30
     Davidson diagonalization with overlap
     ethr =  3.78E-10,  avg # of iterations =  3.8

     negative rho (up, down):  0.000E+00 3.230E-03

     total cpu time spent up to now is    20892.3 secs

     total energy              =   -3488.70024667 Ry
     estimated scf accuracy    <       0.00000060 Ry

     total magnetization       =    32.00 Bohr mag/cell
     absolute magnetization    =    32.10 Bohr mag/cell

     iteration # 12     ecut=    60.00 Ry     beta= 0.30
     Davidson diagonalization with overlap
     ethr =  2.51E-10,  avg # of iterations =  4.9

     negative rho (up, down):  0.000E+00 3.230E-03

     total cpu time spent up to now is    20981.8 secs

     total energy              =   -3488.70024706 Ry
     estimated scf accuracy    <       0.00000012 Ry

     total magnetization       =    32.00 Bohr mag/cell
     absolute magnetization    =    32.10 Bohr mag/cell

     iteration # 13     ecut=    60.00 Ry     beta= 0.30
     Davidson diagonalization with overlap
     ethr =  5.09E-11,  avg # of iterations =  5.2

     negative rho (up, down):  0.000E+00 3.230E-03

     total cpu time spent up to now is    21097.7 secs

     total energy              =   -3488.70024671 Ry
     estimated scf accuracy    <       0.00000075 Ry

     total magnetization       =    32.00 Bohr mag/cell
     absolute magnetization    =    32.10 Bohr mag/cell

     iteration # 14     ecut=    60.00 Ry     beta= 0.30
     Davidson diagonalization with overlap
     ethr =  5.09E-11,  avg # of iterations =  7.4

     negative rho (up, down):  0.000E+00 3.230E-03

     total cpu time spent up to now is    21215.9 secs

     total energy              =   -3488.70024695 Ry
     estimated scf accuracy    <       0.00000023 Ry

     total magnetization       =    32.00 Bohr mag/cell
     absolute magnetization    =    32.10 Bohr mag/cell

     iteration # 15     ecut=    60.00 Ry     beta= 0.30
     Davidson diagonalization with overlap
     ethr =  5.09E-11,  avg # of iterations =  4.9

     negative rho (up, down):  0.000E+00 3.230E-03

     Magnetic moment per site:
     atom:    1    charge:   13.3641    magn:    3.3215    constr:    0.0000
     atom:    2    charge:   13.3641    magn:    3.3215    constr:    0.0000
     atom:    3    charge:   13.3641    magn:    3.3215    constr:    0.0000
     atom:    4    charge:   13.3641    magn:    3.3215    constr:    0.0000
     atom:    5    charge:   13.3281    magn:    3.4129    constr:    0.0000
     atom:    6    charge:   13.3281    magn:    3.4129    constr:    0.0000
     atom:    7    charge:   13.3281    magn:    3.4129    constr:    0.0000
     atom:    8    charge:   13.3281    magn:    3.4129    constr:    0.0000
     atom:    9    charge:    0.3881    magn:    0.0043    constr:    0.0000
     atom:   10    charge:    0.3881    magn:    0.0043    constr:    0.0000
     atom:   11    charge:    0.3881    magn:    0.0043    constr:    0.0000
     atom:   12    charge:    0.3881    magn:    0.0043    constr:    0.0000
     atom:   13    charge:    4.0302    magn:    0.1048    constr:    0.0000
     atom:   14    charge:    4.0302    magn:    0.1048    constr:    0.0000
     atom:   15    charge:    4.0302    magn:    0.1048    constr:    0.0000
     atom:   16    charge:    4.0302    magn:    0.1048    constr:    0.0000
     atom:   17    charge:    4.0218    magn:    0.1180    constr:    0.0000
     atom:   18    charge:    4.0218    magn:    0.1180    constr:    0.0000
     atom:   19    charge:    4.0218    magn:    0.1180    constr:    0.0000
     atom:   20    charge:    4.0218    magn:    0.1180    constr:    0.0000
     atom:   21    charge:    4.0208    magn:    0.1200    constr:    0.0000
     atom:   22    charge:    4.0208    magn:    0.1200    constr:    0.0000
     atom:   23    charge:    4.0208    magn:    0.1200    constr:    0.0000
     atom:   24    charge:    4.0208    magn:    0.1200    constr:    0.0000
     atom:   25    charge:    4.0208    magn:    0.1200    constr:    0.0000
     atom:   26    charge:    4.0208    magn:    0.1200    constr:    0.0000
     atom:   27    charge:    4.0208    magn:    0.1200    constr:    0.0000
     atom:   28    charge:    4.0208    magn:    0.1200    constr:    0.0000

     total cpu time spent up to now is    21266.1 secs

     End of self-consistent calculation

 ------ SPIN UP ------------


          k = 0.0000 0.0000 0.0000 ( 15339 PWs)   bands (ev):

   -79.3212 -79.3212 -79.3212 -79.3212 -79.1015 -79.1015 -79.0996 -79.0996
   -45.9932 -45.9932 -45.9919 -45.9919 -45.5841 -45.5841 -45.5779 -45.5779
   -45.2517 -45.2517 -45.2515 -45.2515 -45.0662 -45.0661 -45.0637 -45.0636
   -44.8527 -44.8527 -44.8522 -44.8519 -44.8501 -44.8498 -44.8221 -44.8221
   -11.3499 -11.1258 -10.8858 -10.7340  -9.7651  -9.7218  -9.7148  -9.6635
    -9.6179  -9.5239  -9.4538  -9.4538  -9.4081  -9.3791  -9.3703  -9.3118
     1.0418   1.0697   1.5586   1.5771   1.6516   1.7236   2.3387   2.3390
     2.3392   2.8486   2.9328   3.0477   3.1482   3.5928   3.7820   3.7821
     4.0031   4.0700   4.1020   4.1492   4.2608   4.3499   4.3920   4.4256
     4.4272   4.5243   4.5459   4.5488   4.6344   4.6910   4.7455   4.7642
     4.8705   4.9496   4.9685   5.0180   5.1959   5.2109   5.3201   5.3851
     5.3935   5.7020   5.9945   5.9978   6.0274   6.2125   6.2276   6.3799
     6.7720   7.0047   7.0500   7.0722   7.1105   7.1829   7.1973   7.3524
     7.3695   7.4268   7.4468   7.5297   7.5523   7.5625   7.8275   7.8668
     7.8911   8.0061   8.0123   8.0567   8.0731   8.0850   8.0854   8.2056
     8.3385   8.3441   8.3759   8.4272   8.6491   8.7347   8.8909   8.9617
     8.9928   9.0461   9.2324   9.2419   9.2977   9.4081   9.4672   9.6473
    11.3850  13.3879  13.9424  15.2904  15.8215  16.2667  16.3408  16.3494

          k = 0.0000 0.0000-0.3929 ( 15392 PWs)   bands (ev):

   -79.3212 -79.3212 -79.3212 -79.3212 -79.1006 -79.1006 -79.1006 -79.1006
   -45.9926 -45.9926 -45.9926 -45.9926 -45.5810 -45.5810 -45.5810 -45.5810
   -45.2516 -45.2516 -45.2516 -45.2516 -45.0649 -45.0649 -45.0649 -45.0649
   -44.8523 -44.8523 -44.8523 -44.8523 -44.8362 -44.8362 -44.8362 -44.8362
   -11.0645 -11.0645 -10.9753 -10.9753  -9.7244  -9.7244  -9.7079  -9.7079
    -9.6496  -9.6496  -9.4595  -9.4595  -9.3847  -9.3847  -9.3014  -9.3014
     1.3317   1.3317   1.4041   1.4041   2.0846   2.0846   2.1493   2.1493
     2.7640   2.7640   3.2247   3.2247   3.4787   3.4787   3.7160   3.7160
     3.7620   3.7620   3.9973   3.9973   4.1602   4.1602   4.3600   4.3600
     4.4119   4.4119   4.5099   4.5099   4.7239   4.7239   4.7793   4.7793
     4.8589   4.8589   5.0650   5.0650   5.0989   5.0989   5.4386   5.4386
     5.6495   5.6495   5.6955   5.6955   5.8281   5.8281   5.9546   5.9546
     7.0629   7.0629   7.0800   7.0800   7.2133   7.2133   7.2351   7.2351
     7.5278   7.5278   7.5476   7.5476   7.6137   7.6137   7.7676   7.7676
     8.0108   8.0108   8.0324   8.0324   8.1042   8.1042   8.1526   8.1526
     8.4217   8.4217   8.5363   8.5363   8.7489   8.7489   8.7654   8.7654
     8.8957   8.8957   8.9293   8.9293   9.2240   9.2240   9.4753   9.4753
    13.3038  13.3038  14.4354  14.4354  15.1695  15.1695  16.6406  16.6408

          k =-0.4856 0.0000 0.0000 ( 15374 PWs)   bands (ev):

   -79.3212 -79.3212 -79.3212 -79.3212 -79.1016 -79.1016 -79.0996 -79.0996
   -45.9926 -45.9926 -45.9926 -45.9926 -45.5841 -45.5841 -45.5779 -45.5779
   -45.2516 -45.2516 -45.2516 -45.2516 -45.0661 -45.0661 -45.0636 -45.0636
   -44.8526 -44.8526 -44.8523 -44.8523 -44.8499 -44.8499 -44.8221 -44.8221
   -10.9718 -10.9718 -10.7000 -10.7000 -10.0845 -10.0845  -9.8561  -9.8561
    -9.5646  -9.5646  -9.4208  -9.4208  -9.4056  -9.4056  -9.3468  -9.3468
     1.1283   1.1283   1.2348   1.2348   2.6864   2.6864   2.7706   2.7706
     2.9632   2.9632   3.0346   3.0346   3.2924   3.2924   3.3492   3.3492
     3.5872   3.5872   3.6001   3.6001   3.7386   3.7386   4.2687   4.2687
     4.3957   4.3957   4.4296   4.4296   4.8824   4.8824   4.8922   4.8922
     4.9945   4.9945   5.0966   5.0966   5.2494   5.2494   5.5858   5.5858
     5.6451   5.6451   5.8046   5.8046   6.0230   6.0230   6.6990   6.6990
     7.0096   7.0096   7.0690   7.0690   7.1336   7.1336   7.2519   7.2519
     7.3371   7.3371   7.3378   7.3378   7.5105   7.5105   7.7550   7.7550
     7.8641   7.8641   8.0592   8.0592   8.1271   8.1271   8.2136   8.2136
     8.5400   8.5400   8.7455   8.7455   8.7487   8.7487   8.8509   8.8509
     8.9726   8.9726   9.0331   9.0331   9.2070   9.2070   9.3995   9.3995
    13.9649  13.9649  14.8413  14.8413  15.2517  15.2517  15.4772  15.4772

          k =-0.4856 0.0000-0.3929 ( 15436 PWs)   bands (ev):

   -79.3213 -79.3213 -79.3212 -79.3212 -79.1006 -79.1006 -79.1006 -79.1006
   -45.9927 -45.9927 -45.9926 -45.9926 -45.5810 -45.5810 -45.5810 -45.5810
   -45.2516 -45.2516 -45.2516 -45.2516 -45.0649 -45.0649 -45.0649 -45.0649
   -44.8523 -44.8523 -44.8523 -44.8523 -44.8362 -44.8362 -44.8362 -44.8362
   -10.8336 -10.8336 -10.8015 -10.8015  -9.9789  -9.9789  -9.9751  -9.9751
    -9.5614  -9.5614  -9.5057  -9.5057  -9.3630  -9.3630  -9.3617  -9.3617
     1.2904   1.2904   1.2961   1.2961   2.7294   2.7294   2.9106   2.9106
     3.0849   3.0849   3.1500   3.1500   3.2018   3.2018   3.3837   3.3837
     3.5459   3.5459   3.6348   3.6348   3.7639   3.7639   3.8424   3.8424
     4.3003   4.3003   4.5702   4.5702   5.0206   5.0206   5.0939   5.0939
     5.1517   5.1517   5.2549   5.2549   5.2616   5.2616   5.3378   5.3378
     5.5169   5.5169   5.6076   5.6076   5.9037   5.9037   6.0728   6.0728
     7.0415   7.0415   7.1571   7.1571   7.3033   7.3033   7.3087   7.3087
     7.3212   7.3212   7.4681   7.4681   7.7054   7.7054   7.7252   7.7252
     7.7863   7.7863   7.9315   7.9315   7.9890   7.9890   8.1023   8.1023
     8.4337   8.4337   8.4456   8.4456   8.4489   8.4489   8.8221   8.8221
     9.0198   9.0198   9.0765   9.0765   9.1818   9.1818   9.5934   9.5934
    14.9454  14.9454  15.0146  15.0146  15.7952  15.8103  15.8105  15.8492

 ------ SPIN DOWN ----------


          k = 0.0000 0.0000 0.0000 ( 15339 PWs)   bands (ev):

   -75.1002 -75.1001 -75.1000 -75.0999 -75.0221 -75.0220 -75.0199 -75.0199
   -41.4218 -41.4217 -41.4197 -41.4197 -41.2882 -41.2882 -41.2793 -41.2793
   -41.2379 -41.2376 -41.2371 -41.2370 -41.1658 -41.1653 -41.1616 -41.1615
   -41.1014 -41.1013 -41.0742 -41.0741 -41.0733 -41.0731 -41.0683 -41.0683
   -11.1342 -10.9135 -10.6719 -10.5230  -9.5440  -9.4949  -9.4827  -9.4321
    -9.3771  -9.2743  -9.2101  -9.2071  -9.1538  -9.1234  -9.1190  -9.0591
     1.3107   1.3235   1.7749   1.8555   1.9193   2.0876   2.6790   2.7023
     2.7735   3.2349   3.3308   3.3404   3.5365   4.0342   4.0889   4.1069
     4.4452   4.6109   4.7615   4.8134   4.8179   4.9284   4.9630   4.9719
     5.0020   5.1260   5.1528   5.1693   5.3605   5.3606   5.4928   5.5160
     5.5630   5.5692   5.7207   5.7300   5.7806   5.8230   5.8451   5.9501
     6.2489   6.3410   6.4622   6.4861   6.6758   6.7025   6.7555   6.9325
     9.8947   9.9407  10.2184  10.2287  10.3347  10.3841  10.4417  10.4467
    10.4581  10.5816  10.6432  10.8639  10.9448  10.9625  10.9767  10.9895
    11.0065  11.0799  11.0936  11.1955  11.2017  11.2345  11.3971  11.4045
    11.8612  11.8999  11.9606  12.0122  12.0269  12.1787  12.2300  12.3049
    12.3084  12.3177  12.3682  12.4264  12.4747  12.4853  12.5478  12.8076
    12.8121  13.9730  14.4529  15.7310  16.1802  16.7231  16.7290  16.7660

          k = 0.0000 0.0000-0.3929 ( 15392 PWs)   bands (ev):

   -75.1001 -75.1001 -75.1001 -75.1001 -75.0211 -75.0211 -75.0211 -75.0211
   -41.4208 -41.4208 -41.4208 -41.4208 -41.2837 -41.2837 -41.2836 -41.2836
   -41.2375 -41.2375 -41.2373 -41.2373 -41.1635 -41.1635 -41.1634 -41.1634
   -41.0852 -41.0852 -41.0851 -41.0851 -41.0737 -41.0737 -41.0736 -41.0736
   -10.8502 -10.8502 -10.7632 -10.7632  -9.4915  -9.4915  -9.4819  -9.4819
    -9.4066  -9.4066  -9.2120  -9.2120  -9.1329  -9.1329  -9.0496  -9.0496
     1.5894   1.5894   1.6519   1.6519   2.4585   2.4585   2.4999   2.4999
     3.1281   3.1281   3.5585   3.5585   3.8478   3.8478   4.0814   4.0814
     4.2857   4.2857   4.5549   4.5549   4.7803   4.7803   4.8630   4.8630
     4.9548   4.9548   5.1508   5.1508   5.3759   5.3759   5.3850   5.3850
     5.6388   5.6388   5.7744   5.7744   5.8190   5.8190   6.0306   6.0306
     6.1103   6.1103   6.1739   6.1739   6.5826   6.5826   6.7143   6.7143
    10.3289  10.3289  10.3611  10.3611  10.4207  10.4207  10.4251  10.4251
    10.6104  10.6104  10.7264  10.7264  10.8652  10.8652  10.9006  10.9006
    10.9923  10.9923  11.0414  11.0414  11.2066  11.2066  11.3146  11.3146
    11.7855  11.7855  11.9116  11.9116  12.1892  12.1892  12.2135  12.2135
    12.3381  12.3381  12.3903  12.3903  12.5882  12.5882  12.6583  12.6583
    13.9157  13.9157  14.9501  14.9501  15.6744  15.6744  16.9894  16.9894

          k =-0.4856 0.0000 0.0000 ( 15374 PWs)   bands (ev):

   -75.1001 -75.1001 -75.1000 -75.1000 -75.0222 -75.0222 -75.0199 -75.0199
   -41.4208 -41.4208 -41.4207 -41.4207 -41.2883 -41.2883 -41.2793 -41.2793
   -41.2375 -41.2375 -41.2372 -41.2372 -41.1656 -41.1656 -41.1615 -41.1615
   -41.1013 -41.1013 -41.0737 -41.0737 -41.0737 -41.0737 -41.0683 -41.0683
   -10.7599 -10.7599 -10.4805 -10.4805  -9.8595  -9.8595  -9.6326  -9.6326
    -9.3154  -9.3154  -9.1675  -9.1675  -9.1566  -9.1566  -9.1018  -9.1018
     1.4235   1.4235   1.4704   1.4704   3.0175   3.0175   3.0888   3.0888
     3.3761   3.3761   3.4284   3.4284   3.7160   3.7160   3.8087   3.8087
     4.0035   4.0035   4.0920   4.0920   4.1326   4.1326   4.6146   4.6146
     5.0244   5.0244   5.0972   5.0972   5.5791   5.5791   5.6719   5.6719
     5.8006   5.8006   5.8897   5.8897   6.0363   6.0363   6.1402   6.1402
     6.3118   6.3118   6.4549   6.4549   6.5788   6.5788   7.1015   7.1015
     9.9201   9.9201  10.1546  10.1546  10.3579  10.3579  10.4762  10.4762
    10.6046  10.6046  10.6956  10.6956  11.0041  11.0041  11.0199  11.0199
    11.0812  11.0812  11.1744  11.1744  11.1847  11.1847  11.4496  11.4496
    11.9279  11.9279  12.0052  12.0052  12.0567  12.0567  12.1802  12.1802
    12.2411  12.2411  12.4405  12.4405  12.4939  12.4939  12.6702  12.6702
    14.4096  14.4096  15.1892  15.1892  15.8167  15.8167  16.0762  16.0762

          k =-0.4856 0.0000-0.3929 ( 15436 PWs)   bands (ev):

   -75.1002 -75.1002 -75.1001 -75.1001 -75.0211 -75.0211 -75.0211 -75.0211
   -41.4209 -41.4209 -41.4208 -41.4208 -41.2837 -41.2837 -41.2836 -41.2836
   -41.2375 -41.2375 -41.2372 -41.2372 -41.1636 -41.1636 -41.1633 -41.1633
   -41.0852 -41.0852 -41.0851 -41.0851 -41.0737 -41.0737 -41.0736 -41.0736
   -10.6188 -10.6188 -10.5865 -10.5865  -9.7551  -9.7551  -9.7484  -9.7484
    -9.3128  -9.3128  -9.2569  -9.2569  -9.1145  -9.1145  -9.1116  -9.1116
     1.5592   1.5592   1.5877   1.5877   3.1289   3.1289   3.3213   3.3213
     3.4658   3.4658   3.5449   3.5449   3.6045   3.6045   3.7269   3.7269
     4.0071   4.0071   4.0360   4.0360   4.3297   4.3297   4.3385   4.3385
     4.7277   4.7277   5.0563   5.0563   5.5629   5.5629   5.5777   5.5777
     5.8033   5.8033   5.9116   5.9116   6.1384   6.1384   6.1831   6.1831
     6.2670   6.2670   6.3371   6.3371   6.4855   6.4855   6.6996   6.6996
    10.2489  10.2489  10.2608  10.2608  10.4433  10.4433  10.4554  10.4554
    10.7177  10.7177  10.7293  10.7293  10.9053  10.9053  10.9078  10.9078
    11.0319  11.0319  11.1173  11.1173  11.1636  11.1636  11.2520  11.2520
    11.7261  11.7261  11.7620  11.7620  11.9933  11.9933  12.0680  12.0680
    12.2255  12.2255  12.3547  12.3547  12.5238  12.5238  12.8310  12.8310
    15.3934  15.3934  15.5318  15.5318  16.2931  16.2931  16.3182  16.3182

     the Fermi energy is    10.5350 ev

!    total energy              =   -3488.70024701 Ry

     total all-electron energy =    -25094.006215 Ry
     estimated scf accuracy    <       0.00000001 Ry
     smearing contrib. (-TS)   =      -0.01102144 Ry
     internal energy E=F+TS    =   -3488.68922557 Ry

     The total energy is F=E-TS. E is the sum of the following terms:
     one-electron contribution =   -1483.63436610 Ry
     hartree contribution      =     868.96296256 Ry
     xc contribution           =    -368.41143203 Ry
     ewald contribution        =   -1547.85177954 Ry
     one-center paw contrib.   =    -957.75461046 Ry

     total magnetization       =    32.00 Bohr mag/cell
     absolute magnetization    =    32.10 Bohr mag/cell

     convergence has been achieved in  15 iterations

     negative rho (up, down):  0.000E+00 3.230E-03

     Forces acting on atoms (cartesian axes, Ry/au):

     atom    1 type  1   force =     0.00000000    0.00000000   -0.00000000
     atom    2 type  1   force =     0.00000000   -0.00000000    0.00000000
     atom    3 type  1   force =     0.00000000   -0.00000000    0.00000000
     atom    4 type  1   force =    -0.00000000    0.00000000    0.00000000
     atom    5 type  1   force =    -0.00235613    0.00234318   -0.00000000
     atom    6 type  1   force =     0.00235613   -0.00234318   -0.00000000
     atom    7 type  1   force =    -0.00235613   -0.00234318    0.00000000
     atom    8 type  1   force =     0.00235613    0.00234318    0.00000000
     atom    9 type  2   force =     0.00131122    0.00019491   -0.00000000
     atom   10 type  2   force =    -0.00131122   -0.00019491   -0.00000000
     atom   11 type  2   force =     0.00131122   -0.00019491    0.00000000
     atom   12 type  2   force =    -0.00131122    0.00019491    0.00000000
     atom   13 type  3   force =    -0.00078261    0.00047197    0.00000000
     atom   14 type  3   force =     0.00078261   -0.00047197    0.00000000
     atom   15 type  3   force =    -0.00078261   -0.00047197    0.00000000
     atom   16 type  3   force =     0.00078261    0.00047197    0.00000000
     atom   17 type  3   force =     0.00128091    0.00049982    0.00000000
     atom   18 type  3   force =    -0.00128091   -0.00049982    0.00000000
     atom   19 type  3   force =     0.00128091   -0.00049982    0.00000000
     atom   20 type  3   force =    -0.00128091    0.00049982    0.00000000
     atom   21 type  3   force =    -0.00014735   -0.00214328    0.00065220
     atom   22 type  3   force =     0.00014735    0.00214328   -0.00065220
     atom   23 type  3   force =    -0.00014735    0.00214328   -0.00065220
     atom   24 type  3   force =     0.00014735   -0.00214328    0.00065220
     atom   25 type  3   force =     0.00014735    0.00214328    0.00065220
     atom   26 type  3   force =    -0.00014735   -0.00214328   -0.00065220
     atom   27 type  3   force =     0.00014735   -0.00214328   -0.00065220
     atom   28 type  3   force =    -0.00014735    0.00214328    0.00065220

     Total force =     0.010121     Total SCF correction =     0.000229


     Computing stress (Cartesian axis) and pressure


     negative rho (up, down):  0.000E+00 3.230E-03
          total   stress  (Ry/bohr**3)                   (kbar)     P=        0.94
  -0.00001958   0.00000000   0.00000000           -2.88        0.00        0.00
   0.00000000   0.00002060   0.00000000            0.00        3.03        0.00
   0.00000000   0.00000000   0.00001820            0.00        0.00        2.68

     Energy error            =      2.7E-04
     Gradient error          =      2.4E-03
     Cell gradient error     =      2.1E-05


     number of scf cycles    =  11
     number of bfgs steps    =  10

     enthalpy old            =   -3488.6999733541 Ry
     enthalpy new            =   -3488.7002470103 Ry

     CASE: enthalpy_new < enthalpy_old

     new trust radius        =       0.0141883966 bohr
     new conv_thr            =       0.0000000236 Ry

     new unit-cell volume =   2089.19435 a.u.^3 (   309.58666 Ang^3 )
     density =      4.37189 g/cm^3

CELL_PARAMETERS (angstrom)
   4.888244047   0.000000000   0.000000000
   0.000000000  10.455410837   0.000000000
   0.000000000   0.000000000   6.057427981

ATOMIC_POSITIONS (angstrom)
Fe            0.0000000000       -0.0000000000        0.0000000000
Fe            2.4441220235        5.2277054187        0.0000000000
Fe           -0.0000000000        0.0000000000        3.0287139905
Fe            2.4441220235        5.2277054187        3.0287139905
Fe            0.1066624843        2.9041751654        4.5430709858
Fe            4.7815815628        7.5512356720        1.5143569953
Fe            2.5507845078        2.3235302533        1.5143569953
Fe            2.3374595393        8.1318805841        4.5430709858
Si            0.3495546727        4.2215700853        1.5143569953
Si            4.5386893744        6.2338407521        4.5430709858
Si            2.7936766963        1.0061353334        4.5430709858
Si            2.0945673508        9.4492755040        1.5143569953
O             1.1560249727        0.9841623141        4.5430709858
O             3.7322190744        9.4712485233        1.5143569953
O             3.6001469962        4.2435431046        1.5143569953
O             1.2880970509        6.2118677328        4.5430709858
O             1.4480947228        0.5300583673        1.5143569953
O             3.4401493243        9.9253524701        4.5430709858
O             3.8922167463        4.6976470514        4.5430709858
O             0.9960273008        5.7577637860        1.5143569953
O             1.0566948829        3.4974387614        2.8226591106
O             3.8315491642        6.9579720760        3.2347688704
O             3.5008169064        1.7302666573        3.2347688704
O             1.3874271406        8.7251441801        2.8226591106
O             3.8315491642        6.9579720760        5.8513731012
O             1.0566948829        3.4974387614        0.2060548799
O             1.3874271406        8.7251441801        0.2060548799
O             3.5008169064        1.7302666573        5.8513731012



     Writing output data file ./out/oliv.save/
     NEW-OLD atomic charge density approx. for the potential

     Check: negative core charge=   -0.000002

     negative rho (up, down):  0.000E+00 3.194E-03
     extrapolated charge  240.00180, renormalised to  240.00000
     Generating pointlists ...

     total cpu time spent up to now is    21311.7 secs

     Self-consistent Calculation

     iteration #  1     ecut=    60.00 Ry     beta= 0.30
     Davidson diagonalization with overlap
     ethr =  1.00E-06,  avg # of iterations =  8.8

     negative rho (up, down):  0.000E+00 3.186E-03

     total cpu time spent up to now is    21469.9 secs

     total energy              =   -3488.70031439 Ry
     estimated scf accuracy    <       0.00046602 Ry

     total magnetization       =    32.00 Bohr mag/cell
     absolute magnetization    =    32.10 Bohr mag/cell

     iteration #  2     ecut=    60.00 Ry     beta= 0.30
     Davidson diagonalization with overlap
     ethr =  1.94E-07,  avg # of iterations =  2.0

     negative rho (up, down):  0.000E+00 3.187E-03

     total cpu time spent up to now is    21529.8 secs

     total energy              =   -3488.70018970 Ry
     estimated scf accuracy    <       0.00568460 Ry

     total magnetization       =    32.00 Bohr mag/cell
     absolute magnetization    =    32.10 Bohr mag/cell

     iteration #  3     ecut=    60.00 Ry     beta= 0.30
     Davidson diagonalization with overlap
     ethr =  1.94E-07,  avg # of iterations =  1.1

     negative rho (up, down):  0.000E+00 3.177E-03

     total cpu time spent up to now is    21581.5 secs

     total energy              =   -3488.70044711 Ry
     estimated scf accuracy    <       0.00023841 Ry

     total magnetization       =    32.00 Bohr mag/cell
     absolute magnetization    =    32.10 Bohr mag/cell

     iteration #  4     ecut=    60.00 Ry     beta= 0.30
     Davidson diagonalization with overlap
     ethr =  9.93E-08,  avg # of iterations =  1.9

     negative rho (up, down):  0.000E+00 3.174E-03

     total cpu time spent up to now is    21638.4 secs

     total energy              =   -3488.70052830 Ry
     estimated scf accuracy    <       0.00003376 Ry

     total magnetization       =    32.00 Bohr mag/cell
     absolute magnetization    =    32.10 Bohr mag/cell

     iteration #  5     ecut=    60.00 Ry     beta= 0.30
     Davidson diagonalization with overlap
     ethr =  1.41E-08,  avg # of iterations =  3.5

     negative rho (up, down):  0.000E+00 3.171E-03

     total cpu time spent up to now is    21705.8 secs

     total energy              =   -3488.70054548 Ry
     estimated scf accuracy    <       0.00003623 Ry

     total magnetization       =    32.00 Bohr mag/cell
     absolute magnetization    =    32.10 Bohr mag/cell

     iteration #  6     ecut=    60.00 Ry     beta= 0.30
     Davidson diagonalization with overlap
     ethr =  1.41E-08,  avg # of iterations =  1.8

     negative rho (up, down):  0.000E+00 3.170E-03

     total cpu time spent up to now is    21765.3 secs

     total energy              =   -3488.70054827 Ry
     estimated scf accuracy    <       0.00000634 Ry

     total magnetization       =    32.00 Bohr mag/cell
     absolute magnetization    =    32.10 Bohr mag/cell

     iteration #  7     ecut=    60.00 Ry     beta= 0.30
     Davidson diagonalization with overlap
     ethr =  2.64E-09,  avg # of iterations =  3.5

     negative rho (up, down):  0.000E+00 3.170E-03

     total cpu time spent up to now is    21834.2 secs

     total energy              =   -3488.70054970 Ry
     estimated scf accuracy    <       0.00000052 Ry

     total magnetization       =    32.00 Bohr mag/cell
     absolute magnetization    =    32.10 Bohr mag/cell

     iteration #  8     ecut=    60.00 Ry     beta= 0.30
     Davidson diagonalization with overlap
     ethr =  2.18E-10,  avg # of iterations =  6.1

     negative rho (up, down):  0.000E+00 3.170E-03

     total cpu time spent up to now is    21928.4 secs

     total energy              =   -3488.70055037 Ry
     estimated scf accuracy    <       0.00000012 Ry

     total magnetization       =    32.00 Bohr mag/cell
     absolute magnetization    =    32.10 Bohr mag/cell

     iteration #  9     ecut=    60.00 Ry     beta= 0.30
     Davidson diagonalization with overlap
     ethr =  5.15E-11,  avg # of iterations =  2.4

     negative rho (up, down):  0.000E+00 3.170E-03

     total cpu time spent up to now is    21981.7 secs

     total energy              =   -3488.70055054 Ry
     estimated scf accuracy    <       0.00000009 Ry

     total magnetization       =    32.00 Bohr mag/cell
     absolute magnetization    =    32.10 Bohr mag/cell

     iteration # 10     ecut=    60.00 Ry     beta= 0.30
     Davidson diagonalization with overlap
     ethr =  3.59E-11,  avg # of iterations =  4.1

     negative rho (up, down):  0.000E+00 3.170E-03

     total cpu time spent up to now is    22060.1 secs

     total energy              =   -3488.70055069 Ry
     estimated scf accuracy    <       0.00000005 Ry

     total magnetization       =    32.00 Bohr mag/cell
     absolute magnetization    =    32.10 Bohr mag/cell

     iteration # 11     ecut=    60.00 Ry     beta= 0.30
     Davidson diagonalization with overlap
     ethr =  2.06E-11,  avg # of iterations =  2.4

     negative rho (up, down):  0.000E+00 3.170E-03

     total cpu time spent up to now is    22126.5 secs

     total energy              =   -3488.70055073 Ry
     estimated scf accuracy    <       0.00000004 Ry

     total magnetization       =    32.00 Bohr mag/cell
     absolute magnetization    =    32.10 Bohr mag/cell

     iteration # 12     ecut=    60.00 Ry     beta= 0.30
     Davidson diagonalization with overlap
     ethr =  1.64E-11,  avg # of iterations =  2.0

     negative rho (up, down):  0.000E+00 3.170E-03

     Magnetic moment per site:
     atom:    1    charge:   13.3639    magn:    3.3209    constr:    0.0000
     atom:    2    charge:   13.3639    magn:    3.3209    constr:    0.0000
     atom:    3    charge:   13.3639    magn:    3.3209    constr:    0.0000
     atom:    4    charge:   13.3639    magn:    3.3209    constr:    0.0000
     atom:    5    charge:   13.3281    magn:    3.4137    constr:    0.0000
     atom:    6    charge:   13.3281    magn:    3.4137    constr:    0.0000
     atom:    7    charge:   13.3281    magn:    3.4137    constr:    0.0000
     atom:    8    charge:   13.3281    magn:    3.4137    constr:    0.0000
     atom:    9    charge:    0.3879    magn:    0.0042    constr:    0.0000
     atom:   10    charge:    0.3879    magn:    0.0042    constr:    0.0000
     atom:   11    charge:    0.3879    magn:    0.0042    constr:    0.0000
     atom:   12    charge:    0.3879    magn:    0.0042    constr:    0.0000
     atom:   13    charge:    4.0301    magn:    0.1046    constr:    0.0000
     atom:   14    charge:    4.0301    magn:    0.1046    constr:    0.0000
     atom:   15    charge:    4.0301    magn:    0.1046    constr:    0.0000
     atom:   16    charge:    4.0301    magn:    0.1046    constr:    0.0000
     atom:   17    charge:    4.0222    magn:    0.1181    constr:    0.0000
     atom:   18    charge:    4.0222    magn:    0.1181    constr:    0.0000
     atom:   19    charge:    4.0222    magn:    0.1181    constr:    0.0000
     atom:   20    charge:    4.0222    magn:    0.1181    constr:    0.0000
     atom:   21    charge:    4.0206    magn:    0.1200    constr:    0.0000
     atom:   22    charge:    4.0206    magn:    0.1200    constr:    0.0000
     atom:   23    charge:    4.0206    magn:    0.1200    constr:    0.0000
     atom:   24    charge:    4.0206    magn:    0.1200    constr:    0.0000
     atom:   25    charge:    4.0206    magn:    0.1200    constr:    0.0000
     atom:   26    charge:    4.0206    magn:    0.1200    constr:    0.0000
     atom:   27    charge:    4.0206    magn:    0.1200    constr:    0.0000
     atom:   28    charge:    4.0206    magn:    0.1200    constr:    0.0000

     total cpu time spent up to now is    22207.3 secs

     End of self-consistent calculation

 ------ SPIN UP ------------


          k = 0.0000 0.0000 0.0000 ( 15339 PWs)   bands (ev):

   -79.3193 -79.3193 -79.3193 -79.3192 -79.0995 -79.0994 -79.0976 -79.0975
   -45.9871 -45.9871 -45.9858 -45.9858 -45.5868 -45.5868 -45.5807 -45.5807
   -45.2591 -45.2591 -45.2588 -45.2588 -45.0627 -45.0626 -45.0603 -45.0602
   -44.8457 -44.8457 -44.8454 -44.8448 -44.8443 -44.8437 -44.8165 -44.8165
   -11.3477 -11.1212 -10.8884 -10.7340  -9.7609  -9.7167  -9.7143  -9.6625
    -9.6158  -9.5234  -9.4542  -9.4491  -9.4066  -9.3751  -9.3664  -9.3087
     1.0440   1.0777   1.5559   1.5796   1.6559   1.7251   2.3352   2.3399
     2.3432   2.8541   2.9400   3.0385   3.1518   3.5947   3.7748   3.7918
     4.0058   4.0696   4.0990   4.1578   4.2629   4.3487   4.3843   4.4322
     4.4423   4.5312   4.5436   4.5474   4.6346   4.6925   4.7471   4.7711
     4.8662   4.9563   4.9739   5.0204   5.1824   5.2179   5.3316   5.3854
     5.3962   5.6910   5.9946   6.0099   6.0273   6.2173   6.2239   6.3800
     6.7766   7.0101   7.0519   7.0730   7.1140   7.1777   7.1983   7.3468
     7.3743   7.4191   7.4335   7.5262   7.5547   7.5658   7.8328   7.8645
     7.8858   8.0041   8.0138   8.0579   8.0779   8.0889   8.0943   8.2135
     8.3442   8.3463   8.3774   8.4271   8.6470   8.7419   8.9010   8.9639
     8.9896   9.0437   9.2305   9.2528   9.2993   9.4172   9.4653   9.6460
    11.3846  13.3862  13.9361  15.2787  15.8192  16.2774  16.3431  16.3680

          k = 0.0000 0.0000-0.3924 ( 15392 PWs)   bands (ev):

   -79.3193 -79.3193 -79.3193 -79.3193 -79.0985 -79.0985 -79.0985 -79.0985
   -45.9865 -45.9865 -45.9865 -45.9865 -45.5838 -45.5838 -45.5837 -45.5837
   -45.2590 -45.2590 -45.2590 -45.2590 -45.0615 -45.0615 -45.0614 -45.0614
   -44.8453 -44.8453 -44.8453 -44.8453 -44.8305 -44.8305 -44.8305 -44.8305
   -11.0634 -11.0634 -10.9742 -10.9742  -9.7217  -9.7217  -9.7052  -9.7052
    -9.6480  -9.6480  -9.4552  -9.4552  -9.3840  -9.3840  -9.2979  -9.2979
     1.3336   1.3336   1.4061   1.4061   2.0852   2.0852   2.1507   2.1507
     2.7637   2.7637   3.2304   3.2304   3.4751   3.4751   3.7195   3.7195
     3.7606   3.7606   4.0015   4.0015   4.1661   4.1661   4.3654   4.3654
     4.4150   4.4150   4.5154   4.5154   4.7217   4.7217   4.7701   4.7701
     4.8616   4.8616   5.0586   5.0586   5.1047   5.1047   5.4476   5.4476
     5.6523   5.6523   5.6989   5.6989   5.8229   5.8229   5.9561   5.9561
     7.0675   7.0675   7.0809   7.0809   7.2125   7.2125   7.2322   7.2322
     7.5222   7.5222   7.5470   7.5470   7.6162   7.6162   7.7674   7.7674
     8.0202   8.0202   8.0390   8.0390   8.1072   8.1072   8.1558   8.1558
     8.4291   8.4291   8.5415   8.5415   8.7526   8.7526   8.7711   8.7711
     8.8967   8.8967   8.9302   8.9302   9.2201   9.2201   9.4764   9.4764
    13.3020  13.3020  14.4341  14.4341  15.1618  15.1618  16.6446  16.6446

          k =-0.4863 0.0000 0.0000 ( 15374 PWs)   bands (ev):

   -79.3193 -79.3193 -79.3193 -79.3193 -79.0995 -79.0995 -79.0975 -79.0975
   -45.9865 -45.9865 -45.9865 -45.9865 -45.5868 -45.5868 -45.5807 -45.5807
   -45.2590 -45.2590 -45.2589 -45.2589 -45.0627 -45.0627 -45.0602 -45.0602
   -44.8457 -44.8457 -44.8452 -44.8452 -44.8438 -44.8438 -44.8165 -44.8165
   -10.9659 -10.9659 -10.6970 -10.6970 -10.0843 -10.0843  -9.8594  -9.8594
    -9.5609  -9.5609  -9.4190  -9.4190  -9.4038  -9.4038  -9.3439  -9.3439
     1.1287   1.1287   1.2351   1.2351   2.6885   2.6885   2.7750   2.7750
     2.9738   2.9738   3.0361   3.0361   3.2916   3.2916   3.3515   3.3515
     3.5957   3.5957   3.5957   3.5957   3.7441   3.7441   4.2664   4.2664
     4.3928   4.3928   4.4350   4.4350   4.8764   4.8764   4.9046   4.9046
     4.9947   4.9947   5.0983   5.0983   5.2583   5.2583   5.5833   5.5833
     5.6425   5.6425   5.8078   5.8078   6.0200   6.0200   6.6978   6.6978
     7.0124   7.0124   7.0717   7.0717   7.1388   7.1388   7.2520   7.2520
     7.3292   7.3292   7.3390   7.3390   7.5065   7.5065   7.7637   7.7637
     7.8601   7.8601   8.0603   8.0603   8.1352   8.1352   8.2156   8.2156
     8.5397   8.5397   8.7506   8.7506   8.7528   8.7528   8.8559   8.8559
     8.9759   8.9759   9.0328   9.0328   9.2054   9.2054   9.3986   9.3986
    13.9610  13.9610  14.8318  14.8318  15.2518  15.2518  15.4875  15.4875

          k =-0.4863 0.0000-0.3924 ( 15436 PWs)   bands (ev):

   -79.3193 -79.3193 -79.3193 -79.3193 -79.0985 -79.0985 -79.0985 -79.0985
   -45.9865 -45.9865 -45.9865 -45.9865 -45.5838 -45.5838 -45.5838 -45.5838
   -45.2590 -45.2590 -45.2589 -45.2589 -45.0615 -45.0615 -45.0614 -45.0614
   -44.8453 -44.8453 -44.8452 -44.8452 -44.8305 -44.8305 -44.8305 -44.8305
   -10.8291 -10.8291 -10.7972 -10.7972  -9.9808  -9.9808  -9.9766  -9.9766
    -9.5576  -9.5576  -9.5026  -9.5026  -9.3606  -9.3606  -9.3599  -9.3599
     1.2893   1.2893   1.2965   1.2965   2.7331   2.7331   2.9132   2.9132
     3.0872   3.0872   3.1528   3.1528   3.1987   3.1987   3.3856   3.3856
     3.5429   3.5429   3.6391   3.6391   3.7642   3.7642   3.8465   3.8465
     4.3050   4.3050   4.5764   4.5764   5.0204   5.0204   5.0995   5.0995
     5.1574   5.1574   5.2640   5.2640   5.2641   5.2641   5.3359   5.3359
     5.5239   5.5239   5.6113   5.6113   5.8980   5.8980   6.0666   6.0666
     7.0437   7.0437   7.1560   7.1560   7.2998   7.2998   7.3060   7.3060
     7.3223   7.3223   7.4661   7.4661   7.7065   7.7065   7.7244   7.7244
     7.7932   7.7932   7.9357   7.9357   7.9943   7.9943   8.1060   8.1060
     8.4409   8.4409   8.4495   8.4495   8.4527   8.4527   8.8243   8.8243
     9.0165   9.0165   9.0745   9.0745   9.1856   9.1856   9.5974   9.5974
    14.9335  14.9335  15.0136  15.0136  15.7991  15.8157  15.8158  15.8478

 ------ SPIN DOWN ----------


          k = 0.0000 0.0000 0.0000 ( 15339 PWs)   bands (ev):

   -75.0972 -75.0971 -75.0970 -75.0969 -75.0205 -75.0203 -75.0183 -75.0183
   -41.4174 -41.4173 -41.4153 -41.4153 -41.2883 -41.2883 -41.2796 -41.2796
   -41.2375 -41.2373 -41.2368 -41.2366 -41.1636 -41.1632 -41.1595 -41.1595
   -41.0978 -41.0977 -41.0700 -41.0699 -41.0690 -41.0689 -41.0650 -41.0650
   -11.1319 -10.9090 -10.6746 -10.5231  -9.5400  -9.4900  -9.4824  -9.4314
    -9.3747  -9.2739  -9.2076  -9.2052  -9.1522  -9.1195  -9.1150  -9.0560
     1.3124   1.3314   1.7717   1.8591   1.9219   2.0891   2.6806   2.6987
     2.7777   3.2411   3.3217   3.3482   3.5399   4.0336   4.0973   4.1012
     4.4487   4.6117   4.7689   4.8103   4.8333   4.9363   4.9617   4.9752
     5.0034   5.1191   5.1509   5.1728   5.3683   5.3728   5.4961   5.5173
     5.5571   5.5603   5.7155   5.7159   5.7902   5.8198   5.8557   5.9588
     6.2359   6.3539   6.4609   6.4778   6.6789   6.7022   6.7562   6.9303
     9.8899   9.9395  10.2288  10.2360  10.3423  10.3848  10.4408  10.4535
    10.4619  10.5798  10.6451  10.8668  10.9462  10.9646  10.9787  10.9902
    11.0086  11.0826  11.0976  11.1996  11.2065  11.2264  11.3918  11.3993
    11.8692  11.9080  11.9576  12.0106  12.0277  12.1828  12.2308  12.3043
    12.3220  12.3221  12.3670  12.4359  12.4744  12.4928  12.5508  12.8044
    12.8113  13.9716  14.4441  15.7155  16.1772  16.7206  16.7509  16.7866

          k = 0.0000 0.0000-0.3924 ( 15392 PWs)   bands (ev):

   -75.0971 -75.0971 -75.0971 -75.0971 -75.0194 -75.0194 -75.0194 -75.0194
   -41.4165 -41.4165 -41.4164 -41.4164 -41.2839 -41.2839 -41.2839 -41.2839
   -41.2371 -41.2371 -41.2370 -41.2370 -41.1615 -41.1615 -41.1613 -41.1613
   -41.0818 -41.0818 -41.0817 -41.0817 -41.0695 -41.0695 -41.0694 -41.0694
   -10.8492 -10.8492 -10.7622 -10.7622  -9.4889  -9.4889  -9.4794  -9.4794
    -9.4050  -9.4050  -9.2076  -9.2076  -9.1323  -9.1323  -9.0461  -9.0461
     1.5910   1.5910   1.6533   1.6533   2.4589   2.4589   2.5012   2.5012
     3.1280   3.1280   3.5635   3.5635   3.8454   3.8454   4.0823   4.0823
     4.2832   4.2832   4.5609   4.5609   4.7854   4.7854   4.8646   4.8646
     4.9601   4.9601   5.1519   5.1519   5.3750   5.3750   5.3827   5.3827
     5.6407   5.6407   5.7735   5.7735   5.8246   5.8246   6.0341   6.0341
     6.1121   6.1121   6.1800   6.1800   6.5779   6.5779   6.7139   6.7139
    10.3305  10.3305  10.3595  10.3595  10.4230  10.4230  10.4260  10.4260
    10.6185  10.6185  10.7312  10.7312  10.8681  10.8681  10.9010  10.9010
    10.9938  10.9938  11.0396  11.0396  11.2103  11.2103  11.3156  11.3156
    11.7956  11.7956  11.9221  11.9221  12.1896  12.1896  12.2116  12.2116
    12.3429  12.3429  12.3945  12.3945  12.5843  12.5843  12.6585  12.6585
    13.9125  13.9125  14.9484  14.9484  15.6652  15.6652  16.9933  16.9933

          k =-0.4863 0.0000 0.0000 ( 15374 PWs)   bands (ev):

   -75.0971 -75.0971 -75.0970 -75.0970 -75.0205 -75.0205 -75.0183 -75.0183
   -41.4164 -41.4164 -41.4163 -41.4163 -41.2884 -41.2884 -41.2797 -41.2797
   -41.2372 -41.2372 -41.2369 -41.2369 -41.1634 -41.1634 -41.1595 -41.1595
   -41.0978 -41.0978 -41.0695 -41.0695 -41.0695 -41.0695 -41.0650 -41.0650
   -10.7540 -10.7540 -10.4775 -10.4775  -9.8595  -9.8595  -9.6362  -9.6362
    -9.3115  -9.3115  -9.1658  -9.1658  -9.1548  -9.1548  -9.0988  -9.0988
     1.4239   1.4239   1.4706   1.4706   3.0202   3.0202   3.0934   3.0934
     3.3860   3.3860   3.4299   3.4299   3.7149   3.7149   3.8072   3.8072
     4.0039   4.0039   4.1001   4.1001   4.1363   4.1363   4.6171   4.6171
     5.0154   5.0154   5.1029   5.1029   5.5729   5.5729   5.6807   5.6807
     5.8119   5.8119   5.8811   5.8811   6.0414   6.0414   6.1427   6.1427
     6.3103   6.3103   6.4574   6.4574   6.5737   6.5737   7.1001   7.1001
     9.9215   9.9215  10.1597  10.1597  10.3638  10.3638  10.4781  10.4781
    10.6053  10.6053  10.7024  10.7024  11.0058  11.0058  11.0227  11.0227
    11.0849  11.0849  11.1727  11.1727  11.1850  11.1850  11.4450  11.4450
    11.9240  11.9240  12.0147  12.0147  12.0667  12.0667  12.1868  12.1868
    12.2409  12.2409  12.4396  12.4396  12.4932  12.4932  12.6685  12.6685
    14.4038  14.4038  15.1801  15.1801  15.8183  15.8183  16.0787  16.0787

          k =-0.4863 0.0000-0.3924 ( 15436 PWs)   bands (ev):

   -75.0972 -75.0972 -75.0971 -75.0971 -75.0195 -75.0195 -75.0195 -75.0195
   -41.4165 -41.4165 -41.4164 -41.4164 -41.2840 -41.2840 -41.2838 -41.2838
   -41.2372 -41.2372 -41.2369 -41.2369 -41.1615 -41.1615 -41.1613 -41.1613
   -41.0818 -41.0818 -41.0817 -41.0817 -41.0695 -41.0695 -41.0693 -41.0693
   -10.6143 -10.6143 -10.5824 -10.5824  -9.7571  -9.7571  -9.7502  -9.7502
    -9.3089  -9.3089  -9.2539  -9.2539  -9.1128  -9.1128  -9.1092  -9.1092
     1.5594   1.5594   1.5866   1.5866   3.1295   3.1295   3.3227   3.3227
     3.4697   3.4697   3.5498   3.5498   3.6015   3.6015   3.7326   3.7326
     4.0035   4.0035   4.0388   4.0388   4.3295   4.3295   4.3419   4.3419
     4.7313   4.7313   5.0628   5.0628   5.5623   5.5623   5.5827   5.5827
     5.8006   5.8006   5.9095   5.9095   6.1471   6.1471   6.1895   6.1895
     6.2755   6.2755   6.3407   6.3407   6.4786   6.4786   6.6965   6.6965
    10.2498  10.2498  10.2653  10.2653  10.4426  10.4426  10.4598  10.4598
    10.7159  10.7159  10.7320  10.7320  10.9095  10.9095  10.9111  10.9111
    11.0370  11.0370  11.1183  11.1183  11.1666  11.1666  11.2486  11.2486
    11.7363  11.7363  11.7710  11.7710  11.9946  11.9946  12.0660  12.0660
    12.2236  12.2236  12.3538  12.3538  12.5271  12.5271  12.8331  12.8331
    15.3760  15.3760  15.5284  15.5284  16.2974  16.2974  16.3263  16.3263

     the Fermi energy is    10.5374 ev

!    total energy              =   -3488.70055076 Ry

     total all-electron energy =    -25094.006518 Ry
     estimated scf accuracy    <       0.00000001 Ry
     smearing contrib. (-TS)   =      -0.01096736 Ry
     internal energy E=F+TS    =   -3488.68958340 Ry

     The total energy is F=E-TS. E is the sum of the following terms:
     one-electron contribution =   -1483.26280818 Ry
     hartree contribution      =     868.79077331 Ry
     xc contribution           =    -368.40684248 Ry
     ewald contribution        =   -1548.05613605 Ry
     one-center paw contrib.   =    -957.75457001 Ry

     total magnetization       =    32.00 Bohr mag/cell
     absolute magnetization    =    32.10 Bohr mag/cell

     convergence has been achieved in  12 iterations

     negative rho (up, down):  0.000E+00 3.170E-03

     Forces acting on atoms (cartesian axes, Ry/au):

     atom    1 type  1   force =     0.00000000    0.00000000    0.00000000
     atom    2 type  1   force =    -0.00000000    0.00000000   -0.00000000
     atom    3 type  1   force =     0.00000000    0.00000000    0.00000000
     atom    4 type  1   force =     0.00000000    0.00000000    0.00000000
     atom    5 type  1   force =    -0.00145118    0.00267184   -0.00000000
     atom    6 type  1   force =     0.00145118   -0.00267184   -0.00000000
     atom    7 type  1   force =    -0.00145118   -0.00267184    0.00000000
     atom    8 type  1   force =     0.00145118    0.00267184    0.00000000
     atom    9 type  2   force =     0.00155690    0.00145489   -0.00000000
     atom   10 type  2   force =    -0.00155690   -0.00145489   -0.00000000
     atom   11 type  2   force =     0.00155690   -0.00145489    0.00000000
     atom   12 type  2   force =    -0.00155690    0.00145489    0.00000000
     atom   13 type  3   force =     0.00005998    0.00048712    0.00000000
     atom   14 type  3   force =    -0.00005998   -0.00048712    0.00000000
     atom   15 type  3   force =     0.00005998   -0.00048712    0.00000000
     atom   16 type  3   force =    -0.00005998    0.00048712    0.00000000
     atom   17 type  3   force =     0.00063906    0.00056072   -0.00000000
     atom   18 type  3   force =    -0.00063906   -0.00056072   -0.00000000
     atom   19 type  3   force =     0.00063906   -0.00056072   -0.00000000
     atom   20 type  3   force =    -0.00063906    0.00056072   -0.00000000
     atom   21 type  3   force =    -0.00094530   -0.00166088   -0.00004104
     atom   22 type  3   force =     0.00094530    0.00166088    0.00004104
     atom   23 type  3   force =    -0.00094530    0.00166088    0.00004104
     atom   24 type  3   force =     0.00094530   -0.00166088   -0.00004104
     atom   25 type  3   force =     0.00094530    0.00166088   -0.00004104
     atom   26 type  3   force =    -0.00094530   -0.00166088    0.00004104
     atom   27 type  3   force =     0.00094530   -0.00166088    0.00004104
     atom   28 type  3   force =    -0.00094530    0.00166088   -0.00004104

     Total force =     0.009393     Total SCF correction =     0.000114


     Computing stress (Cartesian axis) and pressure


     negative rho (up, down):  0.000E+00 3.170E-03
          total   stress  (Ry/bohr**3)                   (kbar)     P=        0.46
  -0.00001483   0.00000000   0.00000000           -2.18        0.00        0.00
   0.00000000   0.00002259   0.00000000            0.00        3.32        0.00
   0.00000000   0.00000000   0.00000164            0.00        0.00        0.24

     Energy error            =      3.0E-04
     Gradient error          =      2.7E-03
     Cell gradient error     =      2.3E-05


     number of scf cycles    =  12
     number of bfgs steps    =  11

     enthalpy old            =   -3488.7002470103 Ry
     enthalpy new            =   -3488.7005507638 Ry

     CASE: enthalpy_new < enthalpy_old

     new trust radius        =       0.0154406646 bohr
     new conv_thr            =       0.0000000267 Ry

     new unit-cell volume =   2089.12522 a.u.^3 (   309.57642 Ang^3 )
     density =      4.37203 g/cm^3

CELL_PARAMETERS (angstrom)
   4.879987481   0.000000000   0.000000000
   0.000000000  10.465097425   0.000000000
   0.000000000   0.000000000   6.061859787

ATOMIC_POSITIONS (angstrom)
Fe            0.0000000000       -0.0000000000        0.0000000000
Fe            2.4399937406        5.2325487123        0.0000000000
Fe           -0.0000000000        0.0000000000        3.0309298937
Fe            2.4399937406        5.2325487123        3.0309298937
Fe            0.1012477008        2.9110585255        4.5463948406
Fe            4.7787397803        7.5540388992        1.5154649469
Fe            2.5412414413        2.3214901868        1.5154649469
Fe            2.3387460398        8.1436072379        4.5463948406
Si            0.3483411034        4.2204858758        1.5154649469
Si            4.5316463777        6.2446115489        4.5463948406
Si            2.7883348439        1.0120628366        4.5463948406
Si            2.0916526372        9.4530345881        1.5154649469
O             1.1506001123        0.9885225412        4.5463948406
O             3.7293873688        9.4765748835        1.5154649469
O             3.5905938529        4.2440261711        1.5154649469
O             1.2893936283        6.2210712536        4.5463948406
O             1.4495280675        0.5257085942        1.5154649469
O             3.4304594136        9.9393888305        4.5463948406
O             3.8895218080        4.7068401182        4.5463948406
O             0.9904656731        5.7582573065        1.5154649469
O             1.0544517687        3.4957608605        2.8243207004
O             3.8255357124        6.9693365642        3.2375390871
O             3.4944455093        1.7367878519        3.2375390871
O             1.3855419718        8.7283095728        2.8243207004
O             3.8255357124        6.9693365642        5.8552505941
O             1.0544517687        3.4957608605        0.2066091934
O             1.3855419718        8.7283095728        0.2066091934
O             3.4944455093        1.7367878519        5.8552505941



     Writing output data file ./out/oliv.save/
     NEW-OLD atomic charge density approx. for the potential

     Check: negative core charge=   -0.000002

     negative rho (up, down):  0.000E+00 3.066E-03
     extrapolated charge  239.99206, renormalised to  240.00000
     Generating pointlists ...

     total cpu time spent up to now is    22271.6 secs

     Self-consistent Calculation

     iteration #  1     ecut=    60.00 Ry     beta= 0.30
     Davidson diagonalization with overlap
     ethr =  1.00E-06,  avg # of iterations =  9.5

     negative rho (up, down):  0.000E+00 3.053E-03

     total cpu time spent up to now is    22458.2 secs

     total energy              =   -3488.70051318 Ry
     estimated scf accuracy    <       0.00044575 Ry

     total magnetization       =    32.00 Bohr mag/cell
     absolute magnetization    =    32.10 Bohr mag/cell

     iteration #  2     ecut=    60.00 Ry     beta= 0.30
     Davidson diagonalization with overlap
     ethr =  1.86E-07,  avg # of iterations =  2.0

     negative rho (up, down):  0.000E+00 3.054E-03

     total cpu time spent up to now is    22496.8 secs

     total energy              =   -3488.70044759 Ry
     estimated scf accuracy    <       0.00306996 Ry

     total magnetization       =    32.00 Bohr mag/cell
     absolute magnetization    =    32.10 Bohr mag/cell

     iteration #  3     ecut=    60.00 Ry     beta= 0.30
     Davidson diagonalization with overlap
     ethr =  1.86E-07,  avg # of iterations =  1.1

     negative rho (up, down):  0.000E+00 3.043E-03

     total cpu time spent up to now is    22527.7 secs

     total energy              =   -3488.70063253 Ry
     estimated scf accuracy    <       0.00038431 Ry

     total magnetization       =    32.00 Bohr mag/cell
     absolute magnetization    =    32.10 Bohr mag/cell

     iteration #  4     ecut=    60.00 Ry     beta= 0.30
     Davidson diagonalization with overlap
     ethr =  1.60E-07,  avg # of iterations =  1.6

     negative rho (up, down):  0.000E+00 3.037E-03

     total cpu time spent up to now is    22561.9 secs

     total energy              =   -3488.70071844 Ry
     estimated scf accuracy    <       0.00004966 Ry

     total magnetization       =    32.00 Bohr mag/cell
     absolute magnetization    =    32.10 Bohr mag/cell

     iteration #  5     ecut=    60.00 Ry     beta= 0.30
     Davidson diagonalization with overlap
     ethr =  2.07E-08,  avg # of iterations =  2.9

     negative rho (up, down):  0.000E+00 3.028E-03

     total cpu time spent up to now is    22602.0 secs

     total energy              =   -3488.70075518 Ry
     estimated scf accuracy    <       0.00002865 Ry

     total magnetization       =    32.00 Bohr mag/cell
     absolute magnetization    =    32.10 Bohr mag/cell

     iteration #  6     ecut=    60.00 Ry     beta= 0.30
     Davidson diagonalization with overlap
     ethr =  1.19E-08,  avg # of iterations =  2.9

     negative rho (up, down):  0.000E+00 3.027E-03

     total cpu time spent up to now is    22644.2 secs

     total energy              =   -3488.70076267 Ry
     estimated scf accuracy    <       0.00000752 Ry

     total magnetization       =    32.00 Bohr mag/cell
     absolute magnetization    =    32.10 Bohr mag/cell

     iteration #  7     ecut=    60.00 Ry     beta= 0.30
     Davidson diagonalization with overlap
     ethr =  3.13E-09,  avg # of iterations =  4.0

     negative rho (up, down):  0.000E+00 3.027E-03

     total cpu time spent up to now is    22691.3 secs

     total energy              =   -3488.70076497 Ry
     estimated scf accuracy    <       0.00000093 Ry

     total magnetization       =    32.00 Bohr mag/cell
     absolute magnetization    =    32.10 Bohr mag/cell

     iteration #  8     ecut=    60.00 Ry     beta= 0.30
     Davidson diagonalization with overlap
     ethr =  3.88E-10,  avg # of iterations =  5.6

     negative rho (up, down):  0.000E+00 3.027E-03

     total cpu time spent up to now is    22750.2 secs

     total energy              =   -3488.70076567 Ry
     estimated scf accuracy    <       0.00000034 Ry

     total magnetization       =    32.00 Bohr mag/cell
     absolute magnetization    =    32.10 Bohr mag/cell

     iteration #  9     ecut=    60.00 Ry     beta= 0.30
     Davidson diagonalization with overlap
     ethr =  1.42E-10,  avg # of iterations =  2.5

     negative rho (up, down):  0.000E+00 3.027E-03

     total cpu time spent up to now is    22791.4 secs

     total energy              =   -3488.70076592 Ry
     estimated scf accuracy    <       0.00000010 Ry

     total magnetization       =    32.00 Bohr mag/cell
     absolute magnetization    =    32.10 Bohr mag/cell

     iteration # 10     ecut=    60.00 Ry     beta= 0.30
     Davidson diagonalization with overlap
     ethr =  4.16E-11,  avg # of iterations =  4.0

     negative rho (up, down):  0.000E+00 3.027E-03

     total cpu time spent up to now is    22836.0 secs

     total energy              =   -3488.70076604 Ry
     estimated scf accuracy    <       0.00000006 Ry

     total magnetization       =    32.00 Bohr mag/cell
     absolute magnetization    =    32.10 Bohr mag/cell

     iteration # 11     ecut=    60.00 Ry     beta= 0.30
     Davidson diagonalization with overlap
     ethr =  2.30E-11,  avg # of iterations =  3.8

     negative rho (up, down):  0.000E+00 3.027E-03

     total cpu time spent up to now is    22877.7 secs

     total energy              =   -3488.70076611 Ry
     estimated scf accuracy    <       0.00000003 Ry

     total magnetization       =    32.00 Bohr mag/cell
     absolute magnetization    =    32.10 Bohr mag/cell

     iteration # 12     ecut=    60.00 Ry     beta= 0.30
     Davidson diagonalization with overlap
     ethr =  1.39E-11,  avg # of iterations =  4.5

     negative rho (up, down):  0.000E+00 3.027E-03

     Magnetic moment per site:
     atom:    1    charge:   13.3639    magn:    3.3194    constr:    0.0000
     atom:    2    charge:   13.3639    magn:    3.3194    constr:    0.0000
     atom:    3    charge:   13.3639    magn:    3.3194    constr:    0.0000
     atom:    4    charge:   13.3639    magn:    3.3194    constr:    0.0000
     atom:    5    charge:   13.3279    magn:    3.4149    constr:    0.0000
     atom:    6    charge:   13.3279    magn:    3.4149    constr:    0.0000
     atom:    7    charge:   13.3279    magn:    3.4149    constr:    0.0000
     atom:    8    charge:   13.3279    magn:    3.4149    constr:    0.0000
     atom:    9    charge:    0.3878    magn:    0.0042    constr:    0.0000
     atom:   10    charge:    0.3878    magn:    0.0042    constr:    0.0000
     atom:   11    charge:    0.3878    magn:    0.0042    constr:    0.0000
     atom:   12    charge:    0.3878    magn:    0.0042    constr:    0.0000
     atom:   13    charge:    4.0300    magn:    0.1043    constr:    0.0000
     atom:   14    charge:    4.0300    magn:    0.1043    constr:    0.0000
     atom:   15    charge:    4.0300    magn:    0.1043    constr:    0.0000
     atom:   16    charge:    4.0300    magn:    0.1043    constr:    0.0000
     atom:   17    charge:    4.0227    magn:    0.1181    constr:    0.0000
     atom:   18    charge:    4.0227    magn:    0.1181    constr:    0.0000
     atom:   19    charge:    4.0227    magn:    0.1181    constr:    0.0000
     atom:   20    charge:    4.0227    magn:    0.1181    constr:    0.0000
     atom:   21    charge:    4.0204    magn:    0.1201    constr:    0.0000
     atom:   22    charge:    4.0204    magn:    0.1201    constr:    0.0000
     atom:   23    charge:    4.0204    magn:    0.1201    constr:    0.0000
     atom:   24    charge:    4.0204    magn:    0.1201    constr:    0.0000
     atom:   25    charge:    4.0204    magn:    0.1201    constr:    0.0000
     atom:   26    charge:    4.0204    magn:    0.1201    constr:    0.0000
     atom:   27    charge:    4.0204    magn:    0.1201    constr:    0.0000
     atom:   28    charge:    4.0204    magn:    0.1201    constr:    0.0000

     total cpu time spent up to now is    22921.0 secs

     End of self-consistent calculation

 ------ SPIN UP ------------


          k = 0.0000 0.0000 0.0000 ( 15339 PWs)   bands (ev):

   -79.3203 -79.3203 -79.3203 -79.3202 -79.0971 -79.0971 -79.0952 -79.0952
   -45.9851 -45.9851 -45.9838 -45.9838 -45.5911 -45.5911 -45.5851 -45.5850
   -45.2655 -45.2655 -45.2653 -45.2653 -45.0592 -45.0591 -45.0568 -45.0568
   -44.8439 -44.8439 -44.8432 -44.8431 -44.8365 -44.8364 -44.8090 -44.8090
   -11.3465 -11.1185 -10.8903 -10.7341  -9.7523  -9.7101  -9.7087  -9.6562
    -9.6211  -9.5218  -9.4543  -9.4539  -9.4149  -9.3711  -9.3701  -9.3049
     1.0524   1.0847   1.5576   1.5790   1.6602   1.7257   2.3322   2.3394
     2.3437   2.8530   2.9473   3.0235   3.1491   3.5958   3.7593   3.7982
     4.0099   4.0696   4.0919   4.1576   4.2687   4.3544   4.3792   4.4377
     4.4527   4.5395   4.5472   4.5477   4.6341   4.6965   4.7494   4.7788
     4.8593   4.9696   4.9732   5.0163   5.1765   5.2235   5.3437   5.3828
     5.4000   5.6814   5.9952   6.0194   6.0289   6.2144   6.2152   6.3787
     6.7790   7.0140   7.0519   7.0712   7.1170   7.1714   7.1975   7.3401
     7.3786   7.4127   7.4196   7.5246   7.5549   7.5713   7.8378   7.8625
     7.8833   8.0007   8.0164   8.0568   8.0794   8.0921   8.1030   8.2180
     8.3477   8.3493   8.3753   8.4248   8.6409   8.7475   8.9075   8.9624
     8.9859   9.0415   9.2260   9.2637   9.2993   9.4264   9.4608   9.6424
    11.3858  13.3824  13.9385  15.2692  15.8122  16.2865  16.3478  16.3895

          k = 0.0000 0.0000-0.3921 ( 15392 PWs)   bands (ev):

   -79.3203 -79.3203 -79.3203 -79.3203 -79.0962 -79.0962 -79.0962 -79.0962
   -45.9846 -45.9846 -45.9846 -45.9846 -45.5881 -45.5881 -45.5880 -45.5880
   -45.2654 -45.2654 -45.2654 -45.2654 -45.0580 -45.0580 -45.0580 -45.0580
   -44.8435 -44.8435 -44.8435 -44.8435 -44.8228 -44.8228 -44.8228 -44.8228
   -11.0630 -11.0630 -10.9736 -10.9736  -9.7190  -9.7190  -9.6979  -9.6979
    -9.6469  -9.6469  -9.4542  -9.4542  -9.3888  -9.3888  -9.2980  -9.2980
     1.3373   1.3373   1.4132   1.4132   2.0820   2.0820   2.1506   2.1506
     2.7615   2.7615   3.2326   3.2326   3.4688   3.4688   3.7181   3.7181
     3.7586   3.7586   4.0027   4.0027   4.1678   4.1678   4.3694   4.3694
     4.4232   4.4232   4.5177   4.5177   4.7228   4.7228   4.7648   4.7648
     4.8610   4.8610   5.0547   5.0547   5.1166   5.1166   5.4608   5.4608
     5.6485   5.6485   5.6999   5.6999   5.8178   5.8178   5.9517   5.9517
     7.0699   7.0699   7.0796   7.0796   7.2113   7.2113   7.2277   7.2277
     7.5156   7.5156   7.5471   7.5471   7.6178   7.6178   7.7667   7.7667
     8.0275   8.0275   8.0458   8.0458   8.1084   8.1084   8.1579   8.1579
     8.4350   8.4350   8.5444   8.5444   8.7536   8.7536   8.7742   8.7742
     8.8970   8.8970   8.9288   8.9288   9.2149   9.2149   9.4751   9.4751
    13.3033  13.3033  14.4362  14.4362  15.1576  15.1576  16.6523  16.6523

          k =-0.4871 0.0000 0.0000 ( 15374 PWs)   bands (ev):

   -79.3203 -79.3203 -79.3203 -79.3203 -79.0972 -79.0972 -79.0952 -79.0952
   -45.9845 -45.9845 -45.9845 -45.9845 -45.5911 -45.5911 -45.5851 -45.5851
   -45.2654 -45.2654 -45.2654 -45.2654 -45.0592 -45.0592 -45.0568 -45.0568
   -44.8436 -44.8436 -44.8435 -44.8435 -44.8365 -44.8365 -44.8090 -44.8090
   -10.9624 -10.9624 -10.6953 -10.6953 -10.0786 -10.0786  -9.8569  -9.8569
    -9.5662  -9.5662  -9.4161  -9.4161  -9.4012  -9.4012  -9.3506  -9.3506
     1.1278   1.1278   1.2324   1.2324   2.6890   2.6890   2.7802   2.7802
     2.9859   2.9859   3.0361   3.0361   3.2930   3.2930   3.3536   3.3536
     3.5878   3.5878   3.5997   3.5997   3.7516   3.7516   4.2657   4.2657
     4.3865   4.3865   4.4378   4.4378   4.8684   4.8684   4.9169   4.9169
     4.9940   4.9940   5.1056   5.1056   5.2619   5.2619   5.5755   5.5755
     5.6423   5.6423   5.8121   5.8121   6.0201   6.0201   6.6947   6.6947
     7.0137   7.0137   7.0722   7.0722   7.1434   7.1434   7.2505   7.2505
     7.3192   7.3192   7.3396   7.3396   7.5021   7.5021   7.7713   7.7713
     7.8586   7.8586   8.0596   8.0596   8.1436   8.1436   8.2150   8.2150
     8.5384   8.5384   8.7555   8.7555   8.7559   8.7559   8.8609   8.8609
     8.9760   8.9760   9.0307   9.0307   9.1995   9.1995   9.3970   9.3970
    13.9602  13.9602  14.8280  14.8280  15.2462  15.2462  15.4984  15.4984

          k =-0.4871 0.0000-0.3921 ( 15436 PWs)   bands (ev):

   -79.3203 -79.3203 -79.3203 -79.3203 -79.0962 -79.0962 -79.0962 -79.0962
   -45.9846 -45.9846 -45.9846 -45.9846 -45.5881 -45.5881 -45.5880 -45.5880
   -45.2654 -45.2654 -45.2654 -45.2654 -45.0580 -45.0580 -45.0580 -45.0580
   -44.8435 -44.8435 -44.8435 -44.8435 -44.8228 -44.8228 -44.8228 -44.8228
   -10.8266 -10.8266 -10.7948 -10.7948  -9.9766  -9.9766  -9.9720  -9.9720
    -9.5606  -9.5606  -9.5021  -9.5021  -9.3644  -9.3644  -9.3602  -9.3602
     1.2866   1.2866   1.2944   1.2944   2.7377   2.7377   2.9143   2.9143
     3.0868   3.0868   3.1558   3.1558   3.1955   3.1955   3.3901   3.3901
     3.5395   3.5395   3.6437   3.6437   3.7620   3.7620   3.8534   3.8534
     4.3052   4.3052   4.5841   4.5841   5.0190   5.0190   5.1011   5.1011
     5.1630   5.1630   5.2702   5.2702   5.2714   5.2714   5.3309   5.3309
     5.5268   5.5268   5.6143   5.6143   5.8938   5.8938   6.0597   6.0597
     7.0453   7.0453   7.1535   7.1535   7.2944   7.2944   7.3020   7.3020
     7.3256   7.3256   7.4650   7.4650   7.7061   7.7061   7.7231   7.7231
     7.7989   7.7989   7.9375   7.9375   7.9991   7.9991   8.1079   8.1079
     8.4454   8.4454   8.4501   8.4501   8.4568   8.4568   8.8259   8.8259
     9.0102   9.0102   9.0693   9.0693   9.1883   9.1883   9.5994   9.5994
    14.9290  14.9291  15.0098  15.0098  15.7986  15.8247  15.8261  15.8510

 ------ SPIN DOWN ----------


          k = 0.0000 0.0000 0.0000 ( 15339 PWs)   bands (ev):

   -75.0964 -75.0964 -75.0962 -75.0961 -75.0195 -75.0193 -75.0173 -75.0173
   -41.4152 -41.4151 -41.4132 -41.4131 -41.2894 -41.2893 -41.2809 -41.2809
   -41.2382 -41.2380 -41.2374 -41.2373 -41.1625 -41.1621 -41.1585 -41.1584
   -41.0946 -41.0945 -41.0690 -41.0690 -41.0681 -41.0679 -41.0619 -41.0619
   -11.1307 -10.9063 -10.6766 -10.5233  -9.5316  -9.4831  -9.4770  -9.4254
    -9.3805  -9.2722  -9.2103  -9.2071  -9.1605  -9.1198  -9.1143  -9.0520
     1.3202   1.3384   1.7734   1.8636   1.9215   2.0896   2.6807   2.6960
     2.7782   3.2409   3.3069   3.3561   3.5371   4.0341   4.0861   4.1030
     4.4507   4.6138   4.7744   4.8147   4.8435   4.9459   4.9617   4.9716
     5.0061   5.1139   5.1553   5.1764   5.3706   5.3826   5.4964   5.5176
     5.5530   5.5686   5.7040   5.7137   5.7981   5.8140   5.8662   5.9703
     6.2261   6.3667   6.4569   6.4721   6.6734   6.6964   6.7516   6.9266
     9.8848   9.9357  10.2341  10.2406  10.3474  10.3855  10.4388  10.4559
    10.4639  10.5755  10.6455  10.8682  10.9472  10.9670  10.9814  10.9913
    11.0117  11.0839  11.1001  11.2038  11.2102  11.2170  11.3865  11.3944
    11.8749  11.9138  11.9550  12.0081  12.0247  12.1838  12.2286  12.3010
    12.3255  12.3340  12.3650  12.4448  12.4728  12.4968  12.5530  12.8006
    12.8089  13.9680  14.4466  15.7034  16.1701  16.7288  16.7733  16.8058

          k = 0.0000 0.0000-0.3921 ( 15392 PWs)   bands (ev):

   -75.0964 -75.0964 -75.0963 -75.0963 -75.0184 -75.0184 -75.0184 -75.0184
   -41.4143 -41.4143 -41.4142 -41.4142 -41.2850 -41.2850 -41.2850 -41.2850
   -41.2378 -41.2378 -41.2376 -41.2376 -41.1604 -41.1604 -41.1602 -41.1602
   -41.0787 -41.0787 -41.0785 -41.0785 -41.0686 -41.0686 -41.0684 -41.0684
   -10.8487 -10.8487 -10.7616 -10.7616  -9.4852  -9.4852  -9.4723  -9.4723
    -9.4050  -9.4050  -9.2065  -9.2065  -9.1369  -9.1369  -9.0461  -9.0461
     1.5949   1.5949   1.6599   1.6599   2.4557   2.4557   2.5003   2.5003
     3.1266   3.1266   3.5660   3.5660   3.8405   3.8405   4.0793   4.0793
     4.2783   4.2783   4.5627   4.5627   4.7872   4.7872   4.8725   4.8725
     4.9666   4.9666   5.1555   5.1555   5.3705   5.3705   5.3837   5.3837
     5.6430   5.6430   5.7736   5.7736   5.8367   5.8367   6.0429   6.0429
     6.1075   6.1075   6.1829   6.1829   6.5707   6.5707   6.7071   6.7071
    10.3288  10.3288  10.3564  10.3564  10.4201  10.4201  10.4286  10.4286
    10.6256  10.6256  10.7341  10.7341  10.8708  10.8708  10.9001  10.9001
    10.9950  10.9950  11.0360  11.0360  11.2139  11.2139  11.3152  11.3152
    11.8036  11.8036  11.9300  11.9300  12.1882  12.1882  12.2065  12.2065
    12.3463  12.3463  12.3964  12.3964  12.5798  12.5798  12.6567  12.6567
    13.9143  13.9143  14.9511  14.9511  15.6617  15.6617  17.0034  17.0034

          k =-0.4871 0.0000 0.0000 ( 15374 PWs)   bands (ev):

   -75.0964 -75.0964 -75.0962 -75.0962 -75.0195 -75.0195 -75.0173 -75.0173
   -41.4142 -41.4142 -41.4142 -41.4142 -41.2894 -41.2894 -41.2809 -41.2809
   -41.2378 -41.2378 -41.2376 -41.2376 -41.1623 -41.1623 -41.1584 -41.1584
   -41.0946 -41.0946 -41.0685 -41.0685 -41.0685 -41.0685 -41.0619 -41.0619
   -10.7505 -10.7505 -10.4759 -10.4759  -9.8540  -9.8540  -9.6339  -9.6339
    -9.3169  -9.3169  -9.1628  -9.1628  -9.1520  -9.1520  -9.1054  -9.1054
     1.4227   1.4227   1.4684   1.4684   3.0213   3.0213   3.0978   3.0978
     3.4002   3.4002   3.4311   3.4311   3.7165   3.7165   3.8014   3.8014
     4.0021   4.0021   4.1037   4.1037   4.1415   4.1415   4.6244   4.6244
     5.0022   5.0022   5.1069   5.1069   5.5680   5.5680   5.6854   5.6854
     5.8243   5.8243   5.8736   5.8736   6.0505   6.0505   6.1393   6.1393
     6.3080   6.3080   6.4586   6.4586   6.5734   6.5734   7.0955   7.0955
     9.9200   9.9200  10.1613  10.1613  10.3682  10.3682  10.4785  10.4785
    10.6029  10.6029  10.7095  10.7095  11.0080  11.0080  11.0245  11.0245
    11.0895  11.0895  11.1690  11.1690  11.1848  11.1848  11.4413  11.4413
    11.9194  11.9194  12.0230  12.0230  12.0748  12.0748  12.1908  12.1908
    12.2378  12.2378  12.4370  12.4370  12.4904  12.4904  12.6661  12.6661
    14.4037  14.4037  15.1760  15.1760  15.8170  15.8170  16.0854  16.0854

          k =-0.4871 0.0000-0.3921 ( 15436 PWs)   bands (ev):

   -75.0964 -75.0964 -75.0963 -75.0963 -75.0185 -75.0185 -75.0185 -75.0185
   -41.4143 -41.4143 -41.4142 -41.4142 -41.2851 -41.2851 -41.2850 -41.2850
   -41.2378 -41.2378 -41.2375 -41.2375 -41.1604 -41.1604 -41.1602 -41.1602
   -41.0787 -41.0787 -41.0785 -41.0785 -41.0685 -41.0685 -41.0684 -41.0684
   -10.6118 -10.6118 -10.5799 -10.5799  -9.7533  -9.7533  -9.7458  -9.7458
    -9.3120  -9.3120  -9.2534  -9.2534  -9.1128  -9.1128  -9.1128  -9.1128
     1.5570   1.5570   1.5841   1.5841   3.1324   3.1324   3.3227   3.3227
     3.4698   3.4698   3.5559   3.5559   3.5986   3.5986   3.7403   3.7403
     3.9999   3.9999   4.0445   4.0445   4.3258   4.3258   4.3484   4.3484
     4.7307   4.7307   5.0712   5.0712   5.5590   5.5590   5.5834   5.5834
     5.8006   5.8006   5.9045   5.9045   6.1577   6.1577   6.1978   6.1978
     6.2829   6.2829   6.3422   6.3422   6.4711   6.4711   6.6900   6.6900
    10.2482  10.2482  10.2673  10.2673  10.4400  10.4400  10.4622  10.4622
    10.7134  10.7134  10.7342  10.7342  10.9124  10.9124  10.9144  10.9144
    11.0430  11.0430  11.1192  11.1192  11.1689  11.1689  11.2442  11.2442
    11.7435  11.7435  11.7777  11.7777  11.9938  11.9938  12.0629  12.0629
    12.2196  12.2196  12.3510  12.3510  12.5284  12.5284  12.8333  12.8333
    15.3702  15.3702  15.5273  15.5273  16.3013  16.3013  16.3270  16.3270

     the Fermi energy is    10.5381 ev

!    total energy              =   -3488.70076616 Ry

     total all-electron energy =    -25094.006734 Ry
     estimated scf accuracy    <       0.00000001 Ry
     smearing contrib. (-TS)   =      -0.01089355 Ry
     internal energy E=F+TS    =   -3488.68987260 Ry

     The total energy is F=E-TS. E is the sum of the following terms:
     one-electron contribution =   -1482.63010161 Ry
     hartree contribution      =     868.48113345 Ry
     xc contribution           =    -368.40642019 Ry
     ewald contribution        =   -1548.37974044 Ry
     one-center paw contrib.   =    -957.75474381 Ry

     total magnetization       =    32.00 Bohr mag/cell
     absolute magnetization    =    32.10 Bohr mag/cell

     convergence has been achieved in  12 iterations

     negative rho (up, down):  0.000E+00 3.027E-03

     Forces acting on atoms (cartesian axes, Ry/au):

     atom    1 type  1   force =     0.00000000   -0.00000000    0.00000000
     atom    2 type  1   force =     0.00000000    0.00000000    0.00000000
     atom    3 type  1   force =     0.00000000    0.00000000    0.00000000
     atom    4 type  1   force =     0.00000000   -0.00000000    0.00000000
     atom    5 type  1   force =    -0.00049561    0.00219421   -0.00000000
     atom    6 type  1   force =     0.00049561   -0.00219421   -0.00000000
     atom    7 type  1   force =    -0.00049561   -0.00219421    0.00000000
     atom    8 type  1   force =     0.00049561    0.00219421    0.00000000
     atom    9 type  2   force =     0.00082795    0.00128845    0.00000000
     atom   10 type  2   force =    -0.00082795   -0.00128845    0.00000000
     atom   11 type  2   force =     0.00082795   -0.00128845   -0.00000000
     atom   12 type  2   force =    -0.00082795    0.00128845   -0.00000000
     atom   13 type  3   force =     0.00001634    0.00016323   -0.00000000
     atom   14 type  3   force =    -0.00001634   -0.00016323   -0.00000000
     atom   15 type  3   force =     0.00001634   -0.00016323    0.00000000
     atom   16 type  3   force =    -0.00001634    0.00016323    0.00000000
     atom   17 type  3   force =    -0.00038124    0.00023319    0.00000000
     atom   18 type  3   force =     0.00038124   -0.00023319    0.00000000
     atom   19 type  3   force =    -0.00038124   -0.00023319   -0.00000000
     atom   20 type  3   force =     0.00038124    0.00023319   -0.00000000
     atom   21 type  3   force =    -0.00107121   -0.00062284   -0.00069504
     atom   22 type  3   force =     0.00107121    0.00062284    0.00069504
     atom   23 type  3   force =    -0.00107121    0.00062284    0.00069504
     atom   24 type  3   force =     0.00107121   -0.00062284   -0.00069504
     atom   25 type  3   force =     0.00107121    0.00062284   -0.00069504
     atom   26 type  3   force =    -0.00107121   -0.00062284    0.00069504
     atom   27 type  3   force =     0.00107121   -0.00062284    0.00069504
     atom   28 type  3   force =    -0.00107121    0.00062284   -0.00069504

     Total force =     0.006832     Total SCF correction =     0.000354


     Computing stress (Cartesian axis) and pressure


     negative rho (up, down):  0.000E+00 3.027E-03
          total   stress  (Ry/bohr**3)                   (kbar)     P=        0.38
  -0.00000205   0.00000000   0.00000000           -0.30        0.00        0.00
   0.00000000   0.00001929   0.00000000            0.00        2.84        0.00
   0.00000000   0.00000000  -0.00000940            0.00        0.00       -1.38

     Energy error            =      2.2E-04
     Gradient error          =      2.2E-03
     Cell gradient error     =      1.9E-05


     number of scf cycles    =  13
     number of bfgs steps    =  12

     enthalpy old            =   -3488.7005507638 Ry
     enthalpy new            =   -3488.7007661579 Ry

     CASE: enthalpy_new < enthalpy_old

     new trust radius        =       0.0098436880 bohr
     new conv_thr            =       0.0000000215 Ry

     new unit-cell volume =   2089.68931 a.u.^3 (   309.66001 Ang^3 )
     density =      4.37085 g/cm^3

CELL_PARAMETERS (angstrom)
   4.875980514   0.000000000   0.000000000
   0.000000000  10.476366516   0.000000000
   0.000000000   0.000000000   6.061951731

ATOMIC_POSITIONS (angstrom)
Fe            0.0000000000       -0.0000000000        0.0000000000
Fe            2.4379902570        5.2381832579        0.0000000000
Fe           -0.0000000000        0.0000000000        3.0309758656
Fe            2.4379902570        5.2381832579        3.0309758656
Fe            0.0985809796        2.9176021057        4.5464637984
Fe            4.7773995343        7.5587644100        1.5154879328
Fe            2.5365712366        2.3205811522        1.5154879328
Fe            2.3394092774        8.1557853636        4.5464637984
Si            0.3482748090        4.2237039542        1.5154879328
Si            4.5277057049        6.2526625616        4.5464637984
Si            2.7862650660        1.0144793037        4.5464637984
Si            2.0897154480        9.4618872121        1.5154879328
O             1.1482329087        0.9914178907        4.5464637984
O             3.7277476052        9.4849486250        1.5154879328
O             3.5862231657        4.2467653671        1.5154879328
O             1.2897573483        6.2296011486        4.5464637984
O             1.4499416236        0.5243155526        1.5154879328
O             3.4260388904        9.9520509632        4.5464637984
O             3.8879318805        4.7138677053        4.5464637984
O             0.9880486334        5.7624988105        1.5154879328
O             1.0524879301        3.4967206702        2.8238869913
O             3.8234925838        6.9796458456        3.2380647399
O             3.4904781871        1.7414625877        3.2380647399
O             1.3855023268        8.7349039280        2.8238869913
O             3.8234925838        6.9796458456        5.8548628569
O             1.0524879301        3.4967206702        0.2070888743
O             1.3855023268        8.7349039280        0.2070888743
O             3.4904781871        1.7414625877        5.8548628569



     Writing output data file ./out/oliv.save/
     NEW-OLD atomic charge density approx. for the potential

     Check: negative core charge=   -0.000002

     negative rho (up, down):  0.000E+00 3.064E-03
     extrapolated charge  240.06478, renormalised to  240.00000
     Generating pointlists ...

     total cpu time spent up to now is    22963.9 secs

     Self-consistent Calculation

     iteration #  1     ecut=    60.00 Ry     beta= 0.30
     Davidson diagonalization with overlap
     ethr =  1.00E-06,  avg # of iterations =  7.5

     negative rho (up, down):  0.000E+00 3.078E-03

     total cpu time spent up to now is    23066.1 secs

     total energy              =   -3488.70041906 Ry
     estimated scf accuracy    <       0.00059892 Ry

     total magnetization       =    32.00 Bohr mag/cell
     absolute magnetization    =    32.10 Bohr mag/cell

     iteration #  2     ecut=    60.00 Ry     beta= 0.30
     Davidson diagonalization with overlap
     ethr =  2.50E-07,  avg # of iterations =  4.1

     negative rho (up, down):  0.000E+00 3.078E-03

     total cpu time spent up to now is    23112.3 secs

     total energy              =   -3488.70045003 Ry
     estimated scf accuracy    <       0.00872299 Ry

     total magnetization       =    32.00 Bohr mag/cell
     absolute magnetization    =    32.10 Bohr mag/cell

     iteration #  3     ecut=    60.00 Ry     beta= 0.30
     Davidson diagonalization with overlap
     ethr =  2.50E-07,  avg # of iterations =  2.0

     negative rho (up, down):  0.000E+00 3.077E-03

     total cpu time spent up to now is    23147.8 secs

     total energy              =   -3488.70075323 Ry
     estimated scf accuracy    <       0.00139391 Ry

     total magnetization       =    32.00 Bohr mag/cell
     absolute magnetization    =    32.10 Bohr mag/cell

     iteration #  4     ecut=    60.00 Ry     beta= 0.30
     Davidson diagonalization with overlap
     ethr =  2.50E-07,  avg # of iterations =  1.8

     negative rho (up, down):  0.000E+00 3.078E-03

     total cpu time spent up to now is    23181.3 secs

     total energy              =   -3488.70079901 Ry
     estimated scf accuracy    <       0.00015604 Ry

     total magnetization       =    32.00 Bohr mag/cell
     absolute magnetization    =    32.10 Bohr mag/cell

     iteration #  5     ecut=    60.00 Ry     beta= 0.30
     Davidson diagonalization with overlap
     ethr =  6.50E-08,  avg # of iterations =  2.6

     negative rho (up, down):  0.000E+00 3.083E-03

     total cpu time spent up to now is    23220.0 secs

     total energy              =   -3488.70084524 Ry
     estimated scf accuracy    <       0.00004280 Ry

     total magnetization       =    32.00 Bohr mag/cell
     absolute magnetization    =    32.10 Bohr mag/cell

     iteration #  6     ecut=    60.00 Ry     beta= 0.30
     Davidson diagonalization with overlap
     ethr =  1.78E-08,  avg # of iterations =  4.4

     negative rho (up, down):  0.000E+00 3.085E-03

     total cpu time spent up to now is    23265.2 secs

     total energy              =   -3488.70085915 Ry
     estimated scf accuracy    <       0.00001857 Ry

     total magnetization       =    32.00 Bohr mag/cell
     absolute magnetization    =    32.10 Bohr mag/cell

     iteration #  7     ecut=    60.00 Ry     beta= 0.30
     Davidson diagonalization with overlap
     ethr =  7.74E-09,  avg # of iterations =  2.0

     negative rho (up, down):  0.000E+00 3.087E-03

     total cpu time spent up to now is    23304.1 secs

     total energy              =   -3488.70086562 Ry
     estimated scf accuracy    <       0.00001400 Ry

     total magnetization       =    32.00 Bohr mag/cell
     absolute magnetization    =    32.10 Bohr mag/cell

     iteration #  8     ecut=    60.00 Ry     beta= 0.30
     Davidson diagonalization with overlap
     ethr =  5.83E-09,  avg # of iterations =  2.9

     negative rho (up, down):  0.000E+00 3.086E-03

     total cpu time spent up to now is    23343.9 secs

     total energy              =   -3488.70086457 Ry
     estimated scf accuracy    <       0.00001050 Ry

     total magnetization       =    32.00 Bohr mag/cell
     absolute magnetization    =    32.10 Bohr mag/cell

     iteration #  9     ecut=    60.00 Ry     beta= 0.30
     Davidson diagonalization with overlap
     ethr =  4.38E-09,  avg # of iterations =  2.0

     negative rho (up, down):  0.000E+00 3.086E-03

     total cpu time spent up to now is    23380.8 secs

     total energy              =   -3488.70086577 Ry
     estimated scf accuracy    <       0.00000068 Ry

     total magnetization       =    32.00 Bohr mag/cell
     absolute magnetization    =    32.10 Bohr mag/cell

     iteration # 10     ecut=    60.00 Ry     beta= 0.30
     Davidson diagonalization with overlap
     ethr =  2.83E-10,  avg # of iterations =  5.6

     negative rho (up, down):  0.000E+00 3.086E-03

     total cpu time spent up to now is    23440.8 secs

     total energy              =   -3488.70086621 Ry
     estimated scf accuracy    <       0.00000027 Ry

     total magnetization       =    32.00 Bohr mag/cell
     absolute magnetization    =    32.10 Bohr mag/cell

     iteration # 11     ecut=    60.00 Ry     beta= 0.30
     Davidson diagonalization with overlap
     ethr =  1.14E-10,  avg # of iterations =  2.0

     negative rho (up, down):  0.000E+00 3.086E-03

     total cpu time spent up to now is    23477.7 secs

     total energy              =   -3488.70086622 Ry
     estimated scf accuracy    <       0.00000012 Ry

     total magnetization       =    32.00 Bohr mag/cell
     absolute magnetization    =    32.10 Bohr mag/cell

     iteration # 12     ecut=    60.00 Ry     beta= 0.30
     Davidson diagonalization with overlap
     ethr =  5.01E-11,  avg # of iterations =  6.0

     negative rho (up, down):  0.000E+00 3.086E-03

     total cpu time spent up to now is    23559.0 secs

     total energy              =   -3488.70086642 Ry
     estimated scf accuracy    <       0.00000045 Ry

     total magnetization       =    32.00 Bohr mag/cell
     absolute magnetization    =    32.10 Bohr mag/cell

     iteration # 13     ecut=    60.00 Ry     beta= 0.30
     Davidson diagonalization with overlap
     ethr =  5.01E-11,  avg # of iterations =  1.0

     negative rho (up, down):  0.000E+00 3.086E-03

     total cpu time spent up to now is    23589.5 secs

     total energy              =   -3488.70086626 Ry
     estimated scf accuracy    <       0.00000029 Ry

     total magnetization       =    32.00 Bohr mag/cell
     absolute magnetization    =    32.10 Bohr mag/cell

     iteration # 14     ecut=    60.00 Ry     beta= 0.30
     Davidson diagonalization with overlap
     ethr =  5.01E-11,  avg # of iterations =  5.4

     negative rho (up, down):  0.000E+00 3.086E-03

     total cpu time spent up to now is    23655.1 secs

     total energy              =   -3488.70086639 Ry
     estimated scf accuracy    <       0.00000004 Ry

     total magnetization       =    32.00 Bohr mag/cell
     absolute magnetization    =    32.10 Bohr mag/cell

     iteration # 15     ecut=    60.00 Ry     beta= 0.30
     Davidson diagonalization with overlap
     ethr =  1.86E-11,  avg # of iterations =  2.0

     negative rho (up, down):  0.000E+00 3.086E-03

     Magnetic moment per site:
     atom:    1    charge:   13.3640    magn:    3.3182    constr:    0.0000
     atom:    2    charge:   13.3640    magn:    3.3182    constr:    0.0000
     atom:    3    charge:   13.3640    magn:    3.3182    constr:    0.0000
     atom:    4    charge:   13.3640    magn:    3.3182    constr:    0.0000
     atom:    5    charge:   13.3277    magn:    3.4157    constr:    0.0000
     atom:    6    charge:   13.3277    magn:    3.4157    constr:    0.0000
     atom:    7    charge:   13.3277    magn:    3.4157    constr:    0.0000
     atom:    8    charge:   13.3277    magn:    3.4157    constr:    0.0000
     atom:    9    charge:    0.3878    magn:    0.0042    constr:    0.0000
     atom:   10    charge:    0.3878    magn:    0.0042    constr:    0.0000
     atom:   11    charge:    0.3878    magn:    0.0042    constr:    0.0000
     atom:   12    charge:    0.3878    magn:    0.0042    constr:    0.0000
     atom:   13    charge:    4.0298    magn:    0.1042    constr:    0.0000
     atom:   14    charge:    4.0298    magn:    0.1042    constr:    0.0000
     atom:   15    charge:    4.0298    magn:    0.1042    constr:    0.0000
     atom:   16    charge:    4.0298    magn:    0.1042    constr:    0.0000
     atom:   17    charge:    4.0228    magn:    0.1180    constr:    0.0000
     atom:   18    charge:    4.0228    magn:    0.1180    constr:    0.0000
     atom:   19    charge:    4.0228    magn:    0.1180    constr:    0.0000
     atom:   20    charge:    4.0228    magn:    0.1180    constr:    0.0000
     atom:   21    charge:    4.0204    magn:    0.1201    constr:    0.0000
     atom:   22    charge:    4.0204    magn:    0.1201    constr:    0.0000
     atom:   23    charge:    4.0204    magn:    0.1201    constr:    0.0000
     atom:   24    charge:    4.0204    magn:    0.1201    constr:    0.0000
     atom:   25    charge:    4.0204    magn:    0.1201    constr:    0.0000
     atom:   26    charge:    4.0204    magn:    0.1201    constr:    0.0000
     atom:   27    charge:    4.0204    magn:    0.1201    constr:    0.0000
     atom:   28    charge:    4.0204    magn:    0.1201    constr:    0.0000

     total cpu time spent up to now is    23691.0 secs

     End of self-consistent calculation

 ------ SPIN UP ------------


          k = 0.0000 0.0000 0.0000 ( 15339 PWs)   bands (ev):

   -79.3268 -79.3268 -79.3268 -79.3268 -79.1008 -79.1008 -79.0989 -79.0989
   -45.9920 -45.9919 -45.9907 -45.9906 -45.5996 -45.5996 -45.5936 -45.5936
   -45.2717 -45.2716 -45.2714 -45.2714 -45.0623 -45.0622 -45.0599 -45.0598
   -44.8504 -44.8504 -44.8496 -44.8496 -44.8361 -44.8361 -44.8085 -44.8085
   -11.3490 -11.1209 -10.8939 -10.7371  -9.7486  -9.7100  -9.7061  -9.6531
    -9.6295  -9.5237  -9.4656  -9.4567  -9.4279  -9.3819  -9.3705  -9.3062
     1.0569   1.0841   1.5576   1.5751   1.6582   1.7227   2.3288   2.3353
     2.3391   2.8454   2.9482   3.0098   3.1402   3.5926   3.7437   3.7969
     4.0101   4.0674   4.0824   4.1485   4.2708   4.3580   4.3754   4.4369
     4.4520   4.5412   4.5452   4.5495   4.6301   4.6965   4.7464   4.7790
     4.8509   4.9664   4.9765   5.0066   5.1748   5.2218   5.3459   5.3763
     5.3985   5.6749   5.9927   6.0181   6.0280   6.2038   6.2047   6.3735
     6.7740   7.0106   7.0462   7.0638   7.1137   7.1625   7.1911   7.3311
     7.3760   7.4058   7.4071   7.5212   7.5491   7.5712   7.8354   7.8568
     7.8788   7.9943   8.0143   8.0509   8.0739   8.0886   8.1036   8.2138
     8.3436   8.3469   8.3666   8.4176   8.6293   8.7444   8.9032   8.9534
     8.9781   9.0362   9.2182   9.2639   9.2944   9.4261   9.4522   9.6334
    11.3812  13.3715  13.9388  15.2588  15.7983  16.2848  16.3492  16.3886

          k = 0.0000 0.0000-0.3921 ( 15392 PWs)   bands (ev):

   -79.3269 -79.3269 -79.3269 -79.3269 -79.0999 -79.0999 -79.0999 -79.0999
   -45.9914 -45.9914 -45.9914 -45.9914 -45.5966 -45.5966 -45.5966 -45.5966
   -45.2715 -45.2715 -45.2715 -45.2715 -45.0610 -45.0610 -45.0610 -45.0610
   -44.8500 -44.8500 -44.8500 -44.8500 -44.8224 -44.8224 -44.8224 -44.8224
   -11.0656 -11.0656 -10.9764 -10.9764  -9.7213  -9.7213  -9.6946  -9.6946
    -9.6493  -9.6493  -9.4599  -9.4599  -9.3969  -9.3969  -9.3035  -9.3035
     1.3367   1.3367   1.4161   1.4161   2.0760   2.0760   2.1469   2.1469
     2.7566   2.7566   3.2292   3.2292   3.4602   3.4602   3.7115   3.7115
     3.7544   3.7544   3.9982   3.9982   4.1627   4.1627   4.3675   4.3675
     4.4265   4.4265   4.5144   4.5144   4.7222   4.7222   4.7606   4.7606
     4.8559   4.8559   5.0510   5.0510   5.1220   5.1220   5.4663   5.4663
     5.6394   5.6394   5.6942   5.6942   5.8121   5.8121   5.9420   5.9420
     7.0653   7.0653   7.0728   7.0728   7.2056   7.2056   7.2191   7.2191
     7.5065   7.5065   7.5433   7.5433   7.6137   7.6137   7.7618   7.7618
     8.0253   8.0253   8.0451   8.0451   8.1041   8.1041   8.1542   8.1542
     8.4318   8.4318   8.5388   8.5388   8.7476   8.7476   8.7691   8.7691
     8.8921   8.8921   8.9210   8.9210   9.2070   9.2070   9.4675   9.4675
    13.2998  13.2998  14.4318  14.4318  15.1514  15.1514  16.6506  16.6506

          k =-0.4875 0.0000 0.0000 ( 15374 PWs)   bands (ev):

   -79.3269 -79.3269 -79.3268 -79.3268 -79.1008 -79.1008 -79.0989 -79.0989
   -45.9913 -45.9913 -45.9913 -45.9913 -45.5996 -45.5996 -45.5936 -45.5936
   -45.2715 -45.2715 -45.2715 -45.2715 -45.0622 -45.0622 -45.0598 -45.0598
   -44.8500 -44.8500 -44.8500 -44.8500 -44.8361 -44.8361 -44.8085 -44.8085
   -10.9649 -10.9649 -10.6984 -10.6984 -10.0753 -10.0753  -9.8552  -9.8552
    -9.5768  -9.5768  -9.4175  -9.4175  -9.4030  -9.4030  -9.3626  -9.3626
     1.1237   1.1237   1.2267   1.2267   2.6858   2.6858   2.7800   2.7800
     2.9898   2.9898   3.0320   3.0320   3.2919   3.2919   3.3511   3.3511
     3.5785   3.5785   3.5961   3.5961   3.7531   3.7531   4.2618   4.2618
     4.3786   4.3786   4.4350   4.4350   4.8596   4.8596   4.9189   4.9189
     4.9898   4.9898   5.1094   5.1094   5.2565   5.2565   5.5644   5.5644
     5.6401   5.6401   5.8113   5.8113   6.0180   6.0180   6.6891   6.6891
     7.0089   7.0089   7.0664   7.0664   7.1412   7.1412   7.2439   7.2439
     7.3076   7.3076   7.3350   7.3350   7.4947   7.4947   7.7700   7.7700
     7.8545   7.8545   8.0542   8.0542   8.1445   8.1445   8.2089   8.2089
     8.5318   8.5318   8.7503   8.7503   8.7537   8.7537   8.8585   8.8585
     8.9689   8.9689   9.0235   9.0235   9.1893   9.1893   9.3911   9.3911
    13.9558  13.9558  14.8245  14.8245  15.2324  15.2324  15.5004  15.5004

          k =-0.4875 0.0000-0.3921 ( 15436 PWs)   bands (ev):

   -79.3269 -79.3269 -79.3269 -79.3269 -79.0999 -79.0999 -79.0999 -79.0999
   -45.9914 -45.9914 -45.9914 -45.9914 -45.5966 -45.5966 -45.5966 -45.5966
   -45.2715 -45.2715 -45.2715 -45.2715 -45.0610 -45.0610 -45.0610 -45.0610
   -44.8500 -44.8500 -44.8500 -44.8500 -44.8224 -44.8224 -44.8224 -44.8224
   -10.8295 -10.8295 -10.7975 -10.7975  -9.9737  -9.9737  -9.9691  -9.9691
    -9.5695  -9.5695  -9.5071  -9.5071  -9.3728  -9.3728  -9.3647  -9.3647
     1.2819   1.2819   1.2889   1.2889   2.7376   2.7376   2.9108   2.9108
     3.0817   3.0817   3.1557   3.1557   3.1909   3.1909   3.3907   3.3907
     3.5341   3.5341   3.6429   3.6429   3.7559   3.7559   3.8555   3.8555
     4.3001   4.3001   4.5849   4.5849   5.0139   5.0139   5.0951   5.0951
     5.1627   5.1627   5.2661   5.2661   5.2739   5.2739   5.3246   5.3246
     5.5219   5.5219   5.6115   5.6115   5.8892   5.8892   6.0526   6.0526
     7.0413   7.0413   7.1467   7.1467   7.2856   7.2856   7.2942   7.2942
     7.3243   7.3243   7.4606   7.4606   7.7002   7.7002   7.7175   7.7175
     7.7965   7.7965   7.9327   7.9327   7.9970   7.9970   8.1032   8.1032
     8.4412   8.4412   8.4443   8.4443   8.4536   8.4536   8.8216   8.8216
     8.9994   8.9994   9.0591   9.0591   9.1839   9.1839   9.5943   9.5943
    14.9257  14.9257  15.0003  15.0003  15.7891  15.8199  15.8272  15.8541

 ------ SPIN DOWN ----------


          k = 0.0000 0.0000 0.0000 ( 15339 PWs)   bands (ev):

   -75.1017 -75.1017 -75.1016 -75.1015 -75.0242 -75.0240 -75.0221 -75.0220
   -41.4202 -41.4201 -41.4181 -41.4181 -41.2953 -41.2953 -41.2869 -41.2869
   -41.2432 -41.2429 -41.2424 -41.2423 -41.1675 -41.1671 -41.1635 -41.1634
   -41.0979 -41.0978 -41.0749 -41.0748 -41.0739 -41.0738 -41.0650 -41.0650
   -11.1332 -10.9086 -10.6802 -10.5263  -9.5281  -9.4822  -9.4746  -9.4226
    -9.3899  -9.2739  -9.2216  -9.2098  -9.1735  -9.1307  -9.1146  -9.0531
     1.3243   1.3377   1.7735   1.8623   1.9175   2.0866   2.6769   2.6925
     2.7738   3.2340   3.2935   3.3572   3.5284   4.0316   4.0696   4.1014
     4.4481   4.6125   4.7733   4.8180   4.8423   4.9482   4.9590   4.9625
     5.0037   5.1095   5.1578   5.1736   5.3649   5.3830   5.4909   5.5148
     5.5526   5.5753   5.6971   5.7111   5.7972   5.8071   5.8675   5.9730
     6.2200   6.3683   6.4503   6.4679   6.6616   6.6875   6.7430   6.9204
     9.8770   9.9270  10.2297  10.2375  10.3448  10.3811  10.4328  10.4496
    10.4592  10.5673  10.6403  10.8636  10.9429  10.9640  10.9787  10.9878
    11.0097  11.0792  11.0959  11.2015  11.2068  11.2069  11.3793  11.3880
    11.8715  11.9102  11.9475  12.0019  12.0152  12.1771  12.2203  12.2925
    12.3215  12.3335  12.3590  12.4440  12.4664  12.4918  12.5485  12.7932
    12.8019  13.9567  14.4480  15.6925  16.1562  16.7357  16.7728  16.8060

          k = 0.0000 0.0000-0.3921 ( 15392 PWs)   bands (ev):

   -75.1017 -75.1017 -75.1016 -75.1016 -75.0232 -75.0232 -75.0232 -75.0232
   -41.4192 -41.4192 -41.4192 -41.4192 -41.2910 -41.2910 -41.2910 -41.2910
   -41.2428 -41.2428 -41.2426 -41.2426 -41.1654 -41.1654 -41.1652 -41.1652
   -41.0819 -41.0819 -41.0817 -41.0817 -41.0744 -41.0744 -41.0742 -41.0742
   -10.8514 -10.8514 -10.7644 -10.7644  -9.4864  -9.4864  -9.4693  -9.4693
    -9.4087  -9.4087  -9.2122  -9.2122  -9.1448  -9.1448  -9.0515  -9.0515
     1.5946   1.5946   1.6625   1.6625   2.4496   2.4496   2.4960   2.4960
     3.1225   3.1225   3.5632   3.5632   3.8330   3.8330   4.0723   4.0723
     4.2715   4.2715   4.5577   4.5577   4.7828   4.7828   4.8769   4.8769
     4.9674   4.9674   5.1556   5.1556   5.3634   5.3634   5.3831   5.3831
     5.6404   5.6404   5.7709   5.7709   5.8423   5.8423   6.0464   6.0464
     6.0984   6.0984   6.1783   6.1783   6.5623   6.5623   6.6961   6.6961
    10.3212  10.3212  10.3495  10.3495  10.4140  10.4140  10.4236  10.4236
    10.6246  10.6246  10.7303  10.7303  10.8673  10.8673  10.8945  10.8945
    10.9908  10.9908  11.0284  11.0284  11.2113  11.2113  11.3096  11.3096
    11.8011  11.8011  11.9270  11.9270  12.1813  12.1813  12.1964  12.1964
    12.3424  12.3424  12.3907  12.3907  12.5722  12.5722  12.6490  12.6490
    13.9123  13.9123  14.9474  14.9474  15.6573  15.6573  17.0045  17.0045

          k =-0.4875 0.0000 0.0000 ( 15374 PWs)   bands (ev):

   -75.1017 -75.1017 -75.1016 -75.1016 -75.0242 -75.0242 -75.0220 -75.0220
   -41.4192 -41.4192 -41.4191 -41.4191 -41.2954 -41.2954 -41.2869 -41.2869
   -41.2428 -41.2428 -41.2426 -41.2426 -41.1673 -41.1673 -41.1635 -41.1635
   -41.0979 -41.0979 -41.0744 -41.0744 -41.0744 -41.0744 -41.0650 -41.0650
   -10.7529 -10.7529 -10.4790 -10.4790  -9.8509  -9.8509  -9.6323  -9.6323
    -9.3278  -9.3278  -9.1641  -9.1641  -9.1536  -9.1536  -9.1175  -9.1175
     1.4182   1.4182   1.4631   1.4631   3.0184   3.0184   3.0968   3.0968
     3.4063   3.4063   3.4281   3.4281   3.7158   3.7158   3.7928   3.7928
     3.9965   3.9965   4.0998   4.0998   4.1416   4.1416   4.6263   4.6263
     4.9898   4.9898   5.1052   5.1052   5.5631   5.5631   5.6814   5.6814
     5.8272   5.8272   5.8672   5.8672   6.0543   6.0543   6.1300   6.1300
     6.3032   6.3032   6.4551   6.4551   6.5723   6.5723   7.0882   7.0882
     9.9128   9.9128  10.1555  10.1555  10.3648  10.3648  10.4730  10.4730
    10.5956  10.5956  10.7092  10.7092  11.0050  11.0050  11.0205  11.0205
    11.0883  11.0883  11.1610  11.1610  11.1801  11.1801  11.4359  11.4359
    11.9110  11.9110  12.0212  12.0212  12.0724  12.0724  12.1862  12.1862
    12.2296  12.2296  12.4297  12.4297  12.4825  12.4825  12.6599  12.6599
    14.4011  14.4011  15.1713  15.1713  15.8076  15.8076  16.0877  16.0877

          k =-0.4875 0.0000-0.3921 ( 15436 PWs)   bands (ev):

   -75.1018 -75.1018 -75.1017 -75.1017 -75.0232 -75.0232 -75.0232 -75.0232
   -41.4192 -41.4192 -41.4192 -41.4192 -41.2911 -41.2911 -41.2910 -41.2910
   -41.2428 -41.2428 -41.2425 -41.2425 -41.1654 -41.1654 -41.1652 -41.1652
   -41.0819 -41.0819 -41.0817 -41.0817 -41.0744 -41.0744 -41.0741 -41.0741
   -10.6146 -10.6146 -10.5825 -10.5825  -9.7506  -9.7506  -9.7431  -9.7431
    -9.3209  -9.3209  -9.2583  -9.2583  -9.1211  -9.1211  -9.1172  -9.1172
     1.5512   1.5512   1.5795   1.5795   3.1322   3.1322   3.3188   3.3188
     3.4644   3.4644   3.5576   3.5576   3.5944   3.5944   3.7418   3.7418
     3.9947   3.9947   4.0454   4.0454   4.3185   4.3185   4.3501   4.3501
     4.7255   4.7255   5.0723   5.0723   5.5522   5.5522   5.5776   5.5776
     5.7983   5.7983   5.8965   5.8965   6.1605   6.1605   6.1995   6.1995
     6.2822   6.2822   6.3385   6.3385   6.4633   6.4633   6.6808   6.6808
    10.2415  10.2415  10.2620  10.2620  10.4332  10.4332  10.4574  10.4574
    10.7072  10.7072  10.7310  10.7310  10.9087  10.9087  10.9116  10.9116
    11.0426  11.0426  11.1157  11.1157  11.1654  11.1654  11.2366  11.2366
    11.7401  11.7401  11.7745  11.7745  11.9873  11.9873  12.0552  12.0552
    12.2104  12.2104  12.3431  12.3431  12.5226  12.5226  12.8272  12.8272
    15.3689  15.3689  15.5221  15.5221  16.2953  16.2954  16.3150  16.3150

     the Fermi energy is    10.5328 ev

!    total energy              =   -3488.70086639 Ry

     total all-electron energy =    -25094.006834 Ry
     estimated scf accuracy    <       0.00000002 Ry
     smearing contrib. (-TS)   =      -0.01082715 Ry
     internal energy E=F+TS    =   -3488.69003924 Ry

     The total energy is F=E-TS. E is the sum of the following terms:
     one-electron contribution =   -1482.46124665 Ry
     hartree contribution      =     868.35956237 Ry
     xc contribution           =    -368.40456893 Ry
     ewald contribution        =   -1548.42886716 Ry
     one-center paw contrib.   =    -957.75491887 Ry

     total magnetization       =    32.00 Bohr mag/cell
     absolute magnetization    =    32.10 Bohr mag/cell

     convergence has been achieved in  15 iterations

     negative rho (up, down):  0.000E+00 3.086E-03

     Forces acting on atoms (cartesian axes, Ry/au):

     atom    1 type  1   force =     0.00000000    0.00000000    0.00000000
     atom    2 type  1   force =     0.00000000    0.00000000    0.00000000
     atom    3 type  1   force =    -0.00000000    0.00000000   -0.00000000
     atom    4 type  1   force =    -0.00000000    0.00000000    0.00000000
     atom    5 type  1   force =    -0.00007669    0.00139147    0.00000000
     atom    6 type  1   force =     0.00007669   -0.00139147    0.00000000
     atom    7 type  1   force =    -0.00007669   -0.00139147    0.00000000
     atom    8 type  1   force =     0.00007669    0.00139147   -0.00000000
     atom    9 type  2   force =    -0.00023483    0.00073611    0.00000000
     atom   10 type  2   force =     0.00023483   -0.00073611    0.00000000
     atom   11 type  2   force =    -0.00023483   -0.00073611    0.00000000
     atom   12 type  2   force =     0.00023483    0.00073611    0.00000000
     atom   13 type  3   force =    -0.00007574   -0.00020255    0.00000000
     atom   14 type  3   force =     0.00007574    0.00020255   -0.00000000
     atom   15 type  3   force =    -0.00007574    0.00020255    0.00000000
     atom   16 type  3   force =     0.00007574   -0.00020255    0.00000000
     atom   17 type  3   force =    -0.00085265   -0.00046908   -0.00000000
     atom   18 type  3   force =     0.00085265    0.00046908    0.00000000
     atom   19 type  3   force =    -0.00085265    0.00046908    0.00000000
     atom   20 type  3   force =     0.00085265   -0.00046908   -0.00000000
     atom   21 type  3   force =    -0.00074843    0.00016891   -0.00073019
     atom   22 type  3   force =     0.00074843   -0.00016891    0.00073019
     atom   23 type  3   force =    -0.00074843   -0.00016891    0.00073019
     atom   24 type  3   force =     0.00074843    0.00016891   -0.00073019
     atom   25 type  3   force =     0.00074843   -0.00016891   -0.00073019
     atom   26 type  3   force =    -0.00074843    0.00016891    0.00073019
     atom   27 type  3   force =     0.00074843    0.00016891    0.00073019
     atom   28 type  3   force =    -0.00074843   -0.00016891   -0.00073019

     Total force =     0.004807     Total SCF correction =     0.000296


     Computing stress (Cartesian axis) and pressure


     negative rho (up, down):  0.000E+00 3.086E-03
          total   stress  (Ry/bohr**3)                   (kbar)     P=        0.27
   0.00000366   0.00000000   0.00000000            0.54        0.00        0.00
   0.00000000   0.00001126   0.00000000            0.00        1.66        0.00
   0.00000000   0.00000000  -0.00000949            0.00        0.00       -1.40

     Energy error            =      1.0E-04
     Gradient error          =      1.4E-03
     Cell gradient error     =      1.1E-05


     number of scf cycles    =  14
     number of bfgs steps    =  13

     enthalpy old            =   -3488.7007661579 Ry
     enthalpy new            =   -3488.7008663945 Ry

     CASE: enthalpy_new < enthalpy_old

     new trust radius        =       0.0085265255 bohr
     new conv_thr            =       0.0000000100 Ry

     new unit-cell volume =   2090.59217 a.u.^3 (   309.79380 Ang^3 )
     density =      4.36897 g/cm^3

CELL_PARAMETERS (angstrom)
   4.874896027   0.000000000   0.000000000
   0.000000000  10.486136906   0.000000000
   0.000000000   0.000000000   6.060268108

ATOMIC_POSITIONS (angstrom)
Fe            0.0000000000       -0.0000000000        0.0000000000
Fe            2.4374480133        5.2430684532        0.0000000000
Fe           -0.0000000000        0.0000000000        3.0301340539
Fe            2.4374480133        5.2430684532        3.0301340539
Fe            0.0974232156        2.9229415034        4.5452010808
Fe            4.7774728111        7.5631954030        1.5150670269
Fe            2.5348712289        2.3201269498        1.5150670269
Fe            2.3400247977        8.1660099567        4.5452010808
Si            0.3481169200        4.2279155664        1.5150670269
Si            4.5267791067        6.2582213400        4.5452010808
Si            2.7855649333        1.0151528868        4.5452010808
Si            2.0893310933        9.4709840196        1.5150670269
O             1.1474198748        0.9929905961        4.5452010808
O             3.7274761519        9.4931463104        1.5150670269
O             3.5848678882        4.2500778572        1.5150670269
O             1.2900281385        6.2360590493        4.5452010808
O             1.4496810851        0.5237282184        1.5150670269
O             3.4252149416        9.9624086880        4.5452010808
O             3.8871290984        4.7193402348        4.5452010808
O             0.9877669282        5.7667966716        1.5150670269
O             1.0511421687        3.4987953367        2.8225238606
O             3.8237538580        6.9873415698        3.2377442472
O             3.4885901820        1.7442731165        3.2377442472
O             1.3863058447        8.7418637899        2.8225238606
O             3.8237538580        6.9873415698        5.8526579144
O             1.0511421687        3.4987953367        0.2076101933
O             1.3863058447        8.7418637899        0.2076101933
O             3.4885901820        1.7442731165        5.8526579144



     Writing output data file ./out/oliv.save/
     NEW-OLD atomic charge density approx. for the potential

     Check: negative core charge=   -0.000002

     negative rho (up, down):  0.000E+00 3.087E-03
     extrapolated charge  240.10365, renormalised to  240.00000
     Generating pointlists ...

     total cpu time spent up to now is    23736.2 secs

     Self-consistent Calculation

     iteration #  1     ecut=    60.00 Ry     beta= 0.30
     Davidson diagonalization with overlap
     ethr =  1.00E-06,  avg # of iterations =  6.6

     negative rho (up, down):  0.000E+00 3.102E-03

     total cpu time spent up to now is    23817.7 secs

     total energy              =   -3488.70004844 Ry
     estimated scf accuracy    <       0.00107378 Ry

     total magnetization       =    32.00 Bohr mag/cell
     absolute magnetization    =    32.10 Bohr mag/cell

     iteration #  2     ecut=    60.00 Ry     beta= 0.30
     Davidson diagonalization with overlap
     ethr =  4.47E-07,  avg # of iterations =  4.2

     negative rho (up, down):  0.000E+00 3.100E-03

     total cpu time spent up to now is    23869.2 secs

     total energy              =   -3488.70030270 Ry
     estimated scf accuracy    <       0.01265336 Ry

     total magnetization       =    32.00 Bohr mag/cell
     absolute magnetization    =    32.10 Bohr mag/cell

     iteration #  3     ecut=    60.00 Ry     beta= 0.30
     Davidson diagonalization with overlap
     ethr =  4.47E-07,  avg # of iterations =  2.0

     negative rho (up, down):  0.000E+00 3.096E-03

     total cpu time spent up to now is    23905.5 secs

     total energy              =   -3488.70076263 Ry
     estimated scf accuracy    <       0.00468366 Ry

     total magnetization       =    32.00 Bohr mag/cell
     absolute magnetization    =    32.10 Bohr mag/cell

     iteration #  4     ecut=    60.00 Ry     beta= 0.30
     Davidson diagonalization with overlap
     ethr =  4.47E-07,  avg # of iterations =  1.8

     negative rho (up, down):  0.000E+00 3.095E-03

     total cpu time spent up to now is    23939.6 secs

     total energy              =   -3488.70088207 Ry
     estimated scf accuracy    <       0.00029565 Ry

     total magnetization       =    32.00 Bohr mag/cell
     absolute magnetization    =    32.10 Bohr mag/cell

     iteration #  5     ecut=    60.00 Ry     beta= 0.30
     Davidson diagonalization with overlap
     ethr =  1.23E-07,  avg # of iterations =  2.0

     negative rho (up, down):  0.000E+00 3.095E-03

     total cpu time spent up to now is    23977.3 secs

     total energy              =   -3488.70087948 Ry
     estimated scf accuracy    <       0.00010861 Ry

     total magnetization       =    32.00 Bohr mag/cell
     absolute magnetization    =    32.10 Bohr mag/cell

     iteration #  6     ecut=    60.00 Ry     beta= 0.30
     Davidson diagonalization with overlap
     ethr =  4.53E-08,  avg # of iterations =  4.1

     negative rho (up, down):  0.000E+00 3.095E-03

     total cpu time spent up to now is    24022.9 secs

     total energy              =   -3488.70091126 Ry
     estimated scf accuracy    <       0.00001168 Ry

     total magnetization       =    32.00 Bohr mag/cell
     absolute magnetization    =    32.10 Bohr mag/cell

     iteration #  7     ecut=    60.00 Ry     beta= 0.30
     Davidson diagonalization with overlap
     ethr =  4.87E-09,  avg # of iterations =  4.8

     negative rho (up, down):  0.000E+00 3.097E-03

     total cpu time spent up to now is    24075.4 secs

     total energy              =   -3488.70091320 Ry
     estimated scf accuracy    <       0.00001089 Ry

     total magnetization       =    32.00 Bohr mag/cell
     absolute magnetization    =    32.10 Bohr mag/cell

     iteration #  8     ecut=    60.00 Ry     beta= 0.30
     Davidson diagonalization with overlap
     ethr =  4.54E-09,  avg # of iterations =  3.8

     negative rho (up, down):  0.000E+00 3.098E-03

     total cpu time spent up to now is    24121.1 secs

     total energy              =   -3488.70091620 Ry
     estimated scf accuracy    <       0.00000332 Ry

     total magnetization       =    32.00 Bohr mag/cell
     absolute magnetization    =    32.10 Bohr mag/cell

     iteration #  9     ecut=    60.00 Ry     beta= 0.30
     Davidson diagonalization with overlap
     ethr =  1.38E-09,  avg # of iterations =  4.0

     negative rho (up, down):  0.000E+00 3.098E-03

     total cpu time spent up to now is    24179.2 secs

     total energy              =   -3488.70091753 Ry
     estimated scf accuracy    <       0.00000816 Ry

     total magnetization       =    32.00 Bohr mag/cell
     absolute magnetization    =    32.10 Bohr mag/cell

     iteration # 10     ecut=    60.00 Ry     beta= 0.30
     Davidson diagonalization with overlap
     ethr =  1.38E-09,  avg # of iterations =  1.0

     negative rho (up, down):  0.000E+00 3.097E-03

     total cpu time spent up to now is    24211.9 secs

     total energy              =   -3488.70091426 Ry
     estimated scf accuracy    <       0.00000617 Ry

     total magnetization       =    32.00 Bohr mag/cell
     absolute magnetization    =    32.10 Bohr mag/cell

     iteration # 11     ecut=    60.00 Ry     beta= 0.30
     Davidson diagonalization with overlap
     ethr =  1.38E-09,  avg # of iterations =  6.0

     negative rho (up, down):  0.000E+00 3.097E-03

     total cpu time spent up to now is    24276.2 secs

     total energy              =   -3488.70091627 Ry
     estimated scf accuracy    <       0.00000117 Ry

     total magnetization       =    32.00 Bohr mag/cell
     absolute magnetization    =    32.10 Bohr mag/cell

     iteration # 12     ecut=    60.00 Ry     beta= 0.30
     Davidson diagonalization with overlap
     ethr =  4.89E-10,  avg # of iterations =  3.2

     negative rho (up, down):  0.000E+00 3.097E-03

     total cpu time spent up to now is    24314.3 secs

     total energy              =   -3488.70091594 Ry
     estimated scf accuracy    <       0.00000069 Ry

     total magnetization       =    32.00 Bohr mag/cell
     absolute magnetization    =    32.10 Bohr mag/cell

     iteration # 13     ecut=    60.00 Ry     beta= 0.30
     Davidson diagonalization with overlap
     ethr =  2.89E-10,  avg # of iterations =  5.2

     negative rho (up, down):  0.000E+00 3.097E-03

     total cpu time spent up to now is    24369.7 secs

     total energy              =   -3488.70091626 Ry
     estimated scf accuracy    <       0.00000020 Ry

     total magnetization       =    32.00 Bohr mag/cell
     absolute magnetization    =    32.10 Bohr mag/cell

     iteration # 14     ecut=    60.00 Ry     beta= 0.30
     Davidson diagonalization with overlap
     ethr =  8.35E-11,  avg # of iterations =  1.9

     negative rho (up, down):  0.000E+00 3.097E-03

     total cpu time spent up to now is    24404.7 secs

     total energy              =   -3488.70091623 Ry
     estimated scf accuracy    <       0.00000008 Ry

     total magnetization       =    32.00 Bohr mag/cell
     absolute magnetization    =    32.10 Bohr mag/cell

     iteration # 15     ecut=    60.00 Ry     beta= 0.30
     Davidson diagonalization with overlap
     ethr =  3.17E-11,  avg # of iterations =  6.6

     negative rho (up, down):  0.000E+00 3.097E-03

     total cpu time spent up to now is    24489.8 secs

     total energy              =   -3488.70091625 Ry
     estimated scf accuracy    <       0.00000031 Ry

     total magnetization       =    32.00 Bohr mag/cell
     absolute magnetization    =    32.10 Bohr mag/cell

     iteration # 16     ecut=    60.00 Ry     beta= 0.30
     Davidson diagonalization with overlap
     ethr =  3.17E-11,  avg # of iterations =  5.4

     negative rho (up, down):  0.000E+00 3.097E-03

     total cpu time spent up to now is    24558.6 secs

     total energy              =   -3488.70091633 Ry
     estimated scf accuracy    <       0.00000001 Ry

     total magnetization       =    32.00 Bohr mag/cell
     absolute magnetization    =    32.10 Bohr mag/cell

     iteration # 17     ecut=    60.00 Ry     beta= 0.30
     Davidson diagonalization with overlap
     ethr =  5.01E-12,  avg # of iterations =  3.8

     negative rho (up, down):  0.000E+00 3.097E-03

     total cpu time spent up to now is    24601.3 secs

     total energy              =   -3488.70091633 Ry
     estimated scf accuracy    <       0.00000001 Ry

     total magnetization       =    32.00 Bohr mag/cell
     absolute magnetization    =    32.10 Bohr mag/cell

     iteration # 18     ecut=    60.00 Ry     beta= 0.30
     Davidson diagonalization with overlap
     ethr =  4.19E-12,  avg # of iterations =  2.0

     negative rho (up, down):  0.000E+00 3.097E-03

     Magnetic moment per site:
     atom:    1    charge:   13.3640    magn:    3.3177    constr:    0.0000
     atom:    2    charge:   13.3640    magn:    3.3177    constr:    0.0000
     atom:    3    charge:   13.3640    magn:    3.3177    constr:    0.0000
     atom:    4    charge:   13.3640    magn:    3.3177    constr:    0.0000
     atom:    5    charge:   13.3275    magn:    3.4160    constr:    0.0000
     atom:    6    charge:   13.3275    magn:    3.4160    constr:    0.0000
     atom:    7    charge:   13.3275    magn:    3.4160    constr:    0.0000
     atom:    8    charge:   13.3275    magn:    3.4160    constr:    0.0000
     atom:    9    charge:    0.3879    magn:    0.0042    constr:    0.0000
     atom:   10    charge:    0.3879    magn:    0.0042    constr:    0.0000
     atom:   11    charge:    0.3879    magn:    0.0042    constr:    0.0000
     atom:   12    charge:    0.3879    magn:    0.0042    constr:    0.0000
     atom:   13    charge:    4.0296    magn:    0.1041    constr:    0.0000
     atom:   14    charge:    4.0296    magn:    0.1041    constr:    0.0000
     atom:   15    charge:    4.0296    magn:    0.1041    constr:    0.0000
     atom:   16    charge:    4.0296    magn:    0.1041    constr:    0.0000
     atom:   17    charge:    4.0229    magn:    0.1179    constr:    0.0000
     atom:   18    charge:    4.0229    magn:    0.1179    constr:    0.0000
     atom:   19    charge:    4.0229    magn:    0.1179    constr:    0.0000
     atom:   20    charge:    4.0229    magn:    0.1179    constr:    0.0000
     atom:   21    charge:    4.0206    magn:    0.1201    constr:    0.0000
     atom:   22    charge:    4.0206    magn:    0.1201    constr:    0.0000
     atom:   23    charge:    4.0206    magn:    0.1201    constr:    0.0000
     atom:   24    charge:    4.0206    magn:    0.1201    constr:    0.0000
     atom:   25    charge:    4.0206    magn:    0.1201    constr:    0.0000
     atom:   26    charge:    4.0206    magn:    0.1201    constr:    0.0000
     atom:   27    charge:    4.0206    magn:    0.1201    constr:    0.0000
     atom:   28    charge:    4.0206    magn:    0.1201    constr:    0.0000

     total cpu time spent up to now is    24638.6 secs

     End of self-consistent calculation

 ------ SPIN UP ------------


          k = 0.0000 0.0000 0.0000 ( 15339 PWs)   bands (ev):

   -79.3346 -79.3346 -79.3346 -79.3346 -79.1080 -79.1079 -79.1061 -79.1061
   -46.0016 -46.0016 -46.0003 -46.0003 -45.6096 -45.6096 -45.6037 -45.6037
   -45.2768 -45.2767 -45.2765 -45.2765 -45.0690 -45.0689 -45.0666 -45.0665
   -44.8587 -44.8587 -44.8579 -44.8579 -44.8408 -44.8408 -44.8131 -44.8131
   -11.3540 -11.1267 -10.8991 -10.7426  -9.7505  -9.7156  -9.7079  -9.6547
    -9.6374  -9.5266  -9.4772  -9.4602  -9.4405  -9.3932  -9.3732  -9.3095
     1.0565   1.0794   1.5555   1.5711   1.6531   1.7181   2.3251   2.3307
     2.3323   2.8351   2.9452   2.9999   3.1298   3.5879   3.7317   3.7928
     4.0080   4.0634   4.0733   4.1375   4.2694   4.3585   4.3725   4.4319
     4.4457   4.5382   4.5423   4.5473   4.6250   4.6931   4.7399   4.7739
     4.8434   4.9577   4.9775   4.9970   5.1742   5.2158   5.3422   5.3687
     5.3939   5.6696   5.9886   6.0111   6.0259   6.1919   6.1944   6.3672
     6.7661   7.0036   7.0384   7.0547   7.1078   7.1531   7.1827   7.3218
     7.3702   7.3962   7.3989   7.5167   7.5408   7.5679   7.8288   7.8489
     7.8721   7.9871   8.0096   8.0437   8.0664   8.0816   8.0996   8.2066
     8.3365   8.3418   8.3558   8.4085   8.6165   8.7373   8.8936   8.9418
     8.9688   9.0293   9.2104   9.2585   9.2876   9.4208   9.4416   9.6226
    11.3737  13.3585  13.9348  15.2476  15.7842  16.2769  16.3440  16.3765

          k = 0.0000 0.0000-0.3922 ( 15392 PWs)   bands (ev):

   -79.3347 -79.3347 -79.3347 -79.3347 -79.1070 -79.1070 -79.1070 -79.1070
   -46.0011 -46.0011 -46.0011 -46.0011 -45.6066 -45.6066 -45.6066 -45.6066
   -45.2767 -45.2767 -45.2766 -45.2766 -45.0678 -45.0678 -45.0678 -45.0678
   -44.8583 -44.8583 -44.8583 -44.8583 -44.8271 -44.8271 -44.8270 -44.8270
   -11.0707 -11.0707 -10.9818 -10.9818  -9.7273  -9.7273  -9.6965  -9.6965
    -9.6532  -9.6532  -9.4676  -9.4676  -9.4044  -9.4044  -9.3102  -9.3102
     1.3330   1.3330   1.4146   1.4146   2.0704   2.0704   2.1422   2.1422
     2.7513   2.7513   3.2236   3.2236   3.4517   3.4517   3.7037   3.7037
     3.7493   3.7493   3.9911   3.9911   4.1553   4.1553   4.3629   4.3629
     4.4255   4.4255   4.5091   4.5091   4.7191   4.7191   4.7563   4.7563
     4.8493   4.8493   5.0474   5.0474   5.1216   5.1216   5.4658   5.4658
     5.6293   5.6293   5.6861   5.6861   5.8069   5.8069   5.9316   5.9316
     7.0579   7.0579   7.0640   7.0640   7.1981   7.1981   7.2094   7.2094
     7.4971   7.4971   7.5377   7.5377   7.6068   7.6068   7.7550   7.7550
     8.0187   8.0187   8.0400   8.0400   8.0980   8.0980   8.1481   8.1481
     8.4245   8.4245   8.5296   8.5296   8.7392   8.7392   8.7605   8.7605
     8.8846   8.8846   8.9109   8.9109   9.1984   9.1984   9.4572   9.4572
    13.2932  13.2932  14.4236  14.4236  15.1429  15.1429  16.6427  16.6428

          k =-0.4876 0.0000 0.0000 ( 15374 PWs)   bands (ev):

   -79.3347 -79.3347 -79.3346 -79.3346 -79.1080 -79.1080 -79.1061 -79.1061
   -46.0010 -46.0010 -46.0010 -46.0010 -45.6096 -45.6096 -45.6037 -45.6037
   -45.2767 -45.2767 -45.2766 -45.2766 -45.0690 -45.0690 -45.0666 -45.0666
   -44.8584 -44.8584 -44.8583 -44.8583 -44.8408 -44.8408 -44.8131 -44.8131
   -10.9708 -10.9708 -10.7045 -10.7045 -10.0767 -10.0767  -9.8568  -9.8568
    -9.5878  -9.5878  -9.4204  -9.4204  -9.4062  -9.4062  -9.3747  -9.3747
     1.1190   1.1190   1.2213   1.2213   2.6806   2.6806   2.7762   2.7762
     2.9882   2.9882   3.0261   3.0261   3.2883   3.2883   3.3460   3.3460
     3.5690   3.5690   3.5895   3.5895   3.7502   3.7502   4.2561   4.2561
     4.3703   4.3703   4.4314   4.4314   4.8509   4.8509   4.9150   4.9150
     4.9847   4.9847   5.1092   5.1092   5.2484   5.2484   5.5535   5.5535
     5.6366   5.6366   5.8074   5.8074   6.0137   6.0137   6.6830   6.6830
     7.0016   7.0016   7.0583   7.0583   7.1360   7.1360   7.2351   7.2351
     7.2965   7.2965   7.3284   7.3284   7.4863   7.4863   7.7641   7.7641
     7.8479   7.8479   8.0477   8.0477   8.1409   8.1409   8.2013   8.2013
     8.5230   8.5230   8.7410   8.7410   8.7479   8.7479   8.8525   8.8525
     8.9587   8.9587   9.0144   9.0144   9.1789   9.1789   9.3833   9.3833
    13.9487  13.9487  14.8198  14.8198  15.2171  15.2171  15.4986  15.4986

          k =-0.4876 0.0000-0.3922 ( 15436 PWs)   bands (ev):

   -79.3347 -79.3347 -79.3347 -79.3347 -79.1071 -79.1071 -79.1071 -79.1071
   -46.0011 -46.0011 -46.0011 -46.0011 -45.6066 -45.6066 -45.6066 -45.6066
   -45.2767 -45.2767 -45.2766 -45.2766 -45.0678 -45.0678 -45.0678 -45.0678
   -44.8584 -44.8584 -44.8583 -44.8583 -44.8271 -44.8271 -44.8270 -44.8270
   -10.8355 -10.8355 -10.8034 -10.8034  -9.9748  -9.9748  -9.9701  -9.9701
    -9.5791  -9.5791  -9.5134  -9.5134  -9.3815  -9.3815  -9.3702  -9.3702
     1.2773   1.2773   1.2830   1.2830   2.7342   2.7342   2.9047   2.9047
     3.0744   3.0744   3.1538   3.1538   3.1850   3.1850   3.3888   3.3888
     3.5282   3.5282   3.6390   3.6390   3.7486   3.7486   3.8536   3.8536
     4.2933   4.2933   4.5811   4.5811   5.0073   5.0073   5.0859   5.0859
     5.1591   5.1591   5.2581   5.2581   5.2723   5.2723   5.3179   5.3179
     5.5142   5.5142   5.6059   5.6059   5.8850   5.8850   6.0464   6.0464
     7.0349   7.0349   7.1384   7.1384   7.2760   7.2760   7.2853   7.2853
     7.3202   7.3202   7.4542   7.4542   7.6918   7.6918   7.7100   7.7100
     7.7901   7.7901   7.9255   7.9255   7.9912   7.9912   8.0958   8.0958
     8.4338   8.4338   8.4361   8.4361   8.4469   8.4469   8.8143   8.8143
     8.9878   8.9878   9.0478   9.0478   9.1756   9.1756   9.5858   9.5858
    14.9212  14.9212  14.9897  14.9897  15.7766  15.8078  15.8198  15.8554

 ------ SPIN DOWN ----------


          k = 0.0000 0.0000 0.0000 ( 15339 PWs)   bands (ev):

   -75.1090 -75.1090 -75.1089 -75.1087 -75.0317 -75.0315 -75.0296 -75.0295
   -41.4277 -41.4277 -41.4257 -41.4257 -41.3034 -41.3034 -41.2951 -41.2951
   -41.2494 -41.2492 -41.2487 -41.2486 -41.1752 -41.1748 -41.1713 -41.1712
   -41.1045 -41.1044 -41.0827 -41.0827 -41.0818 -41.0816 -41.0714 -41.0713
   -11.1383 -10.9145 -10.6854 -10.5318  -9.5303  -9.4871  -9.4767  -9.4245
    -9.3989  -9.2768  -9.2332  -9.2133  -9.1862  -9.1421  -9.1173  -9.0564
     1.3237   1.3329   1.7712   1.8576   1.9133   2.0820   2.6721   2.6886
     2.7669   3.2242   3.2836   3.3544   3.5183   4.0279   4.0562   4.0968
     4.4427   4.6095   4.7679   4.8186   4.8352   4.9448   4.9528   4.9549
     4.9979   5.1050   5.1567   5.1658   5.3570   5.3795   5.4831   5.5116
     5.5522   5.5776   5.6916   5.7085   5.7910   5.8012   5.8637   5.9696
     6.2148   6.3629   6.4433   6.4648   6.6498   6.6786   6.7344   6.9139
     9.8683   9.9173  10.2225  10.2314  10.3390  10.3740  10.4253  10.4406
    10.4515  10.5585  10.6332  10.8565  10.9361  10.9585  10.9733  10.9818
    11.0054  11.0719  11.0890  11.1961  11.1971  11.2004  11.3715  11.3808
    11.8642  11.9027  11.9381  11.9946  12.0036  12.1677  12.2100  12.2826
    12.3144  12.3266  12.3516  12.4383  12.4584  12.4829  12.5411  12.7843
    12.7926  13.9429  14.4450  15.6817  16.1423  16.7353  16.7609  16.7957

          k = 0.0000 0.0000-0.3922 ( 15392 PWs)   bands (ev):

   -75.1090 -75.1090 -75.1089 -75.1089 -75.0307 -75.0307 -75.0307 -75.0307
   -41.4268 -41.4268 -41.4268 -41.4268 -41.2992 -41.2992 -41.2992 -41.2992
   -41.2490 -41.2490 -41.2489 -41.2489 -41.1731 -41.1731 -41.1730 -41.1730
   -41.0884 -41.0884 -41.0881 -41.0881 -41.0823 -41.0823 -41.0820 -41.0820
   -10.8566 -10.8566 -10.7699 -10.7699  -9.4917  -9.4917  -9.4714  -9.4714
    -9.4135  -9.4135  -9.2200  -9.2200  -9.1524  -9.1524  -9.0582  -9.0582
     1.5909   1.5909   1.6608   1.6608   2.4440   2.4440   2.4907   2.4907
     3.1177   3.1177   3.5582   3.5582   3.8249   3.8249   4.0644   4.0644
     4.2647   4.2647   4.5500   4.5500   4.7755   4.7755   4.8771   4.8771
     4.9643   4.9643   5.1523   5.1523   5.3561   5.3561   5.3803   5.3803
     5.6347   5.6347   5.7663   5.7663   5.8419   5.8419   6.0453   6.0453
     6.0891   6.0891   6.1709   6.1709   6.5552   6.5552   6.6854   6.6854
    10.3121  10.3121  10.3414  10.3414  10.4068  10.4068  10.4156  10.4156
    10.6197  10.6197  10.7239  10.7239  10.8609  10.8609  10.8872  10.8872
    10.9845  10.9845  11.0196  11.0196  11.2056  11.2056  11.3019  11.3019
    11.7938  11.7938  11.9191  11.9191  12.1726  12.1726  12.1853  12.1853
    12.3355  12.3355  12.3819  12.3819  12.5635  12.5635  12.6387  12.6387
    13.9075  13.9075  14.9395  14.9395  15.6505  15.6505  16.9987  16.9987

          k =-0.4876 0.0000 0.0000 ( 15374 PWs)   bands (ev):

   -75.1090 -75.1090 -75.1089 -75.1089 -75.0317 -75.0317 -75.0295 -75.0295
   -41.4268 -41.4268 -41.4267 -41.4267 -41.3035 -41.3035 -41.2951 -41.2951
   -41.2491 -41.2491 -41.2488 -41.2488 -41.1750 -41.1750 -41.1712 -41.1712
   -41.1045 -41.1045 -41.0822 -41.0822 -41.0822 -41.0822 -41.0714 -41.0714
   -10.7588 -10.7588 -10.4850 -10.4850  -9.8527  -9.8527  -9.6341  -9.6341
    -9.3390  -9.3390  -9.1670  -9.1670  -9.1568  -9.1568  -9.1296  -9.1296
     1.4130   1.4130   1.4581   1.4581   3.0133   3.0133   3.0924   3.0924
     3.4058   3.4058   3.4229   3.4229   3.7125   3.7125   3.7839   3.7839
     3.9890   3.9890   4.0931   4.0931   4.1379   4.1379   4.6229   4.6229
     4.9799   4.9799   5.1019   5.1019   5.5578   5.5578   5.6743   5.6743
     5.8238   5.8238   5.8611   5.8611   6.0538   6.0538   6.1197   6.1197
     6.2983   6.2983   6.4496   6.4496   6.5694   6.5694   7.0807   7.0807
     9.9039   9.9039  10.1472  10.1472  10.3581  10.3581  10.4650  10.4650
    10.5870  10.5870  10.7049  10.7049  10.9994  10.9994  11.0139  11.0139
    11.0842  11.0842  11.1518  11.1518  11.1736  11.1736  11.4295  11.4295
    11.9013  11.9013  12.0145  12.0145  12.0651  12.0651  12.1780  12.1780
    12.2201  12.2201  12.4203  12.4203  12.4731  12.4731  12.6521  12.6521
    14.3956  14.3956  15.1649  15.1649  15.7958  15.7958  16.0876  16.0876

          k =-0.4876 0.0000-0.3922 ( 15436 PWs)   bands (ev):

   -75.1090 -75.1090 -75.1090 -75.1090 -75.0307 -75.0307 -75.0307 -75.0307
   -41.4268 -41.4268 -41.4268 -41.4268 -41.2993 -41.2993 -41.2991 -41.2991
   -41.2491 -41.2491 -41.2488 -41.2488 -41.1732 -41.1732 -41.1730 -41.1730
   -41.0884 -41.0884 -41.0881 -41.0881 -41.0822 -41.0822 -41.0819 -41.0819
   -10.6206 -10.6206 -10.5884 -10.5884  -9.7521  -9.7521  -9.7445  -9.7445
    -9.3307  -9.3307  -9.2647  -9.2647  -9.1298  -9.1298  -9.1227  -9.1227
     1.5452   1.5452   1.5748   1.5748   3.1292   3.1292   3.3127   3.3127
     3.4566   3.4566   3.5563   3.5563   3.5888   3.5888   3.7392   3.7392
     3.9893   3.9893   4.0420   4.0420   4.3111   4.3111   4.3478   4.3478
     4.7188   4.7188   5.0683   5.0683   5.5442   5.5442   5.5693   5.5693
     5.7940   5.7940   5.8884   5.8884   6.1580   6.1580   6.1970   6.1970
     6.2778   6.2778   6.3327   6.3327   6.4567   6.4567   6.6720   6.6720
    10.2337  10.2337  10.2541  10.2541  10.4249  10.4249  10.4496  10.4496
    10.6997  10.6997  10.7250  10.7250  10.9021  10.9021  10.9055  10.9055
    11.0388  11.0388  11.1101  11.1101  11.1591  11.1591  11.2280  11.2280
    11.7322  11.7322  11.7667  11.7667  11.9789  11.9789  12.0460  12.0460
    12.1996  12.1996  12.3337  12.3337  12.5134  12.5134  12.8183  12.8183
    15.3666  15.3666  15.5144  15.5144  16.2843  16.2844  16.2992  16.2992

     the Fermi energy is    10.5252 ev

!    total energy              =   -3488.70091633 Ry

     total all-electron energy =    -25094.006884 Ry
     estimated scf accuracy    <          5.9E-09 Ry
     smearing contrib. (-TS)   =      -0.01077056 Ry
     internal energy E=F+TS    =   -3488.69014577 Ry

     The total energy is F=E-TS. E is the sum of the following terms:
     one-electron contribution =   -1482.64804836 Ry
     hartree contribution      =     868.39540095 Ry
     xc contribution           =    -368.40288267 Ry
     ewald contribution        =   -1548.27953895 Ry
     one-center paw contrib.   =    -957.75507675 Ry

     total magnetization       =    32.00 Bohr mag/cell
     absolute magnetization    =    32.10 Bohr mag/cell

     convergence has been achieved in  18 iterations

     negative rho (up, down):  0.000E+00 3.097E-03

     Forces acting on atoms (cartesian axes, Ry/au):

     atom    1 type  1   force =     0.00000000    0.00000000   -0.00000000
     atom    2 type  1   force =    -0.00000000   -0.00000000    0.00000000
     atom    3 type  1   force =     0.00000000    0.00000000    0.00000000
     atom    4 type  1   force =     0.00000000    0.00000000    0.00000000
     atom    5 type  1   force =     0.00003342    0.00066692    0.00000000
     atom    6 type  1   force =    -0.00003342   -0.00066692    0.00000000
     atom    7 type  1   force =     0.00003342   -0.00066692    0.00000000
     atom    8 type  1   force =    -0.00003342    0.00066692    0.00000000
     atom    9 type  2   force =    -0.00075687    0.00008479   -0.00000000
     atom   10 type  2   force =     0.00075687   -0.00008479   -0.00000000
     atom   11 type  2   force =    -0.00075687   -0.00008479    0.00000000
     atom   12 type  2   force =     0.00075687    0.00008479    0.00000000
     atom   13 type  3   force =    -0.00029766   -0.00043940    0.00000000
     atom   14 type  3   force =     0.00029766    0.00043940   -0.00000000
     atom   15 type  3   force =    -0.00029766    0.00043940    0.00000000
     atom   16 type  3   force =     0.00029766   -0.00043940    0.00000000
     atom   17 type  3   force =    -0.00086828   -0.00072938   -0.00000000
     atom   18 type  3   force =     0.00086828    0.00072938   -0.00000000
     atom   19 type  3   force =    -0.00086828    0.00072938    0.00000000
     atom   20 type  3   force =     0.00086828   -0.00072938    0.00000000
     atom   21 type  3   force =    -0.00040642    0.00052001   -0.00029610
     atom   22 type  3   force =     0.00040642   -0.00052001    0.00029610
     atom   23 type  3   force =    -0.00040642   -0.00052001    0.00029610
     atom   24 type  3   force =     0.00040642    0.00052001   -0.00029610
     atom   25 type  3   force =     0.00040642   -0.00052001   -0.00029610
     atom   26 type  3   force =    -0.00040642    0.00052001    0.00029610
     atom   27 type  3   force =     0.00040642    0.00052001    0.00029610
     atom   28 type  3   force =    -0.00040642   -0.00052001   -0.00029610

     Total force =     0.003816     Total SCF correction =     0.000181


     Computing stress (Cartesian axis) and pressure


     negative rho (up, down):  0.000E+00 3.097E-03
          total   stress  (Ry/bohr**3)                   (kbar)     P=        0.03
   0.00000335   0.00000000   0.00000000            0.49        0.00        0.00
   0.00000000   0.00000300   0.00000000            0.00        0.44        0.00
   0.00000000   0.00000000  -0.00000579            0.00        0.00       -0.85

     Energy error            =      5.0E-05
     Gradient error          =      8.7E-04
     Cell gradient error     =      5.8E-06


     number of scf cycles    =  15
     number of bfgs steps    =  14

     enthalpy old            =   -3488.7008663945 Ry
     enthalpy new            =   -3488.7009163327 Ry

     CASE: enthalpy_new < enthalpy_old

     new trust radius        =       0.0051551288 bohr
     new conv_thr            =       0.0000000050 Ry

     new unit-cell volume =   2091.25423 a.u.^3 (   309.89191 Ang^3 )
     density =      4.36758 g/cm^3

CELL_PARAMETERS (angstrom)
   4.875066202   0.000000000   0.000000000
   0.000000000  10.492048307   0.000000000
   0.000000000   0.000000000   6.058560274

ATOMIC_POSITIONS (angstrom)
Fe            0.0000000000       -0.0000000000        0.0000000000
Fe            2.4375331012        5.2460241535        0.0000000000
Fe           -0.0000000000        0.0000000000        3.0292801368
Fe            2.4375331012        5.2460241535        3.0292801368
Fe            0.0969208248        2.9263440687        4.5439202052
Fe            4.7781453776        7.5657042383        1.5146400684
Fe            2.5344539260        2.3196800848        1.5146400684
Fe            2.3406122764        8.1723682223        4.5439202052
Si            0.3475194665        4.2306579341        1.5146400684
Si            4.5275467359        6.2613903730        4.5439202052
Si            2.7850525677        1.0153662194        4.5439202052
Si            2.0900136347        9.4766820876        1.5146400684
O             1.1469626903        0.9934582759        4.5439202052
O             3.7281035121        9.4985900312        1.5146400684
O             3.5844957915        4.2525658777        1.5146400684
O             1.2905704109        6.2394824294        4.5439202052
O             1.4490538501        0.5230471600        1.5146400684
O             3.4260123523        9.9690011470        4.5439202052
O             3.8865869513        4.7229769935        4.5439202052
O             0.9884792511        5.7690713136        1.5146400684
O             1.0503957687        3.5006009586        2.8213164989
O             3.8246704337        6.9914473485        3.2372437747
O             3.4879288699        1.7454231950        3.2372437747
O             1.3871373325        8.7466251121        2.8213164989
O             3.8246704337        6.9914473485        5.8505966357
O             1.0503957687        3.5006009586        0.2079636379
O             1.3871373325        8.7466251121        0.2079636379
O             3.4879288699        1.7454231950        5.8505966357



     Writing output data file ./out/oliv.save/
     NEW-OLD atomic charge density approx. for the potential

     Check: negative core charge=   -0.000002

     negative rho (up, down):  0.000E+00 3.089E-03
     extrapolated charge  240.07598, renormalised to  240.00000
     Generating pointlists ...

     total cpu time spent up to now is    24684.0 secs

     Self-consistent Calculation

     iteration #  1     ecut=    60.00 Ry     beta= 0.30
     Davidson diagonalization with overlap
     ethr =  1.00E-06,  avg # of iterations =  6.1

     negative rho (up, down):  0.000E+00 3.099E-03

     total cpu time spent up to now is    24750.9 secs

     total energy              =   -3488.70045497 Ry
     estimated scf accuracy    <       0.00053670 Ry

     total magnetization       =    32.00 Bohr mag/cell
     absolute magnetization    =    32.10 Bohr mag/cell

     iteration #  2     ecut=    60.00 Ry     beta= 0.30
     Davidson diagonalization with overlap
     ethr =  2.24E-07,  avg # of iterations =  4.9

     negative rho (up, down):  0.000E+00 3.098E-03

     total cpu time spent up to now is    24808.9 secs

     total energy              =   -3488.70063056 Ry
     estimated scf accuracy    <       0.00640831 Ry

     total magnetization       =    32.00 Bohr mag/cell
     absolute magnetization    =    32.10 Bohr mag/cell

     iteration #  3     ecut=    60.00 Ry     beta= 0.30
     Davidson diagonalization with overlap
     ethr =  2.24E-07,  avg # of iterations =  2.0

     negative rho (up, down):  0.000E+00 3.095E-03

     total cpu time spent up to now is    24845.9 secs

     total energy              =   -3488.70086648 Ry
     estimated scf accuracy    <       0.00245172 Ry

     total magnetization       =    32.00 Bohr mag/cell
     absolute magnetization    =    32.10 Bohr mag/cell

     iteration #  4     ecut=    60.00 Ry     beta= 0.30
     Davidson diagonalization with overlap
     ethr =  2.24E-07,  avg # of iterations =  1.9

     negative rho (up, down):  0.000E+00 3.094E-03

     total cpu time spent up to now is    24881.4 secs

     total energy              =   -3488.70092690 Ry
     estimated scf accuracy    <       0.00015331 Ry

     total magnetization       =    32.00 Bohr mag/cell
     absolute magnetization    =    32.10 Bohr mag/cell

     iteration #  5     ecut=    60.00 Ry     beta= 0.30
     Davidson diagonalization with overlap
     ethr =  6.39E-08,  avg # of iterations =  2.0

     negative rho (up, down):  0.000E+00 3.093E-03

     total cpu time spent up to now is    24919.0 secs

     total energy              =   -3488.70092404 Ry
     estimated scf accuracy    <       0.00005424 Ry

     total magnetization       =    32.00 Bohr mag/cell
     absolute magnetization    =    32.10 Bohr mag/cell

     iteration #  6     ecut=    60.00 Ry     beta= 0.30
     Davidson diagonalization with overlap
     ethr =  2.26E-08,  avg # of iterations =  4.1

     negative rho (up, down):  0.000E+00 3.093E-03

     total cpu time spent up to now is    24962.5 secs

     total energy              =   -3488.70093866 Ry
     estimated scf accuracy    <       0.00000582 Ry

     total magnetization       =    32.00 Bohr mag/cell
     absolute magnetization    =    32.10 Bohr mag/cell

     iteration #  7     ecut=    60.00 Ry     beta= 0.30
     Davidson diagonalization with overlap
     ethr =  2.42E-09,  avg # of iterations =  5.4

     negative rho (up, down):  0.000E+00 3.093E-03

     total cpu time spent up to now is    25030.1 secs

     total energy              =   -3488.70094052 Ry
     estimated scf accuracy    <       0.00000573 Ry

     total magnetization       =    32.00 Bohr mag/cell
     absolute magnetization    =    32.10 Bohr mag/cell

     iteration #  8     ecut=    60.00 Ry     beta= 0.30
     Davidson diagonalization with overlap
     ethr =  2.39E-09,  avg # of iterations =  2.0

     negative rho (up, down):  0.000E+00 3.094E-03

     total cpu time spent up to now is    25069.2 secs

     total energy              =   -3488.70094073 Ry
     estimated scf accuracy    <       0.00000157 Ry

     total magnetization       =    32.00 Bohr mag/cell
     absolute magnetization    =    32.10 Bohr mag/cell

     iteration #  9     ecut=    60.00 Ry     beta= 0.30
     Davidson diagonalization with overlap
     ethr =  6.53E-10,  avg # of iterations =  5.4

     negative rho (up, down):  0.000E+00 3.094E-03

     total cpu time spent up to now is    25132.0 secs

     total energy              =   -3488.70094213 Ry
     estimated scf accuracy    <       0.00000299 Ry

     total magnetization       =    32.00 Bohr mag/cell
     absolute magnetization    =    32.10 Bohr mag/cell

     iteration # 10     ecut=    60.00 Ry     beta= 0.30
     Davidson diagonalization with overlap
     ethr =  6.53E-10,  avg # of iterations =  1.1

     negative rho (up, down):  0.000E+00 3.093E-03

     total cpu time spent up to now is    25171.6 secs

     total energy              =   -3488.70094076 Ry
     estimated scf accuracy    <       0.00000268 Ry

     total magnetization       =    32.00 Bohr mag/cell
     absolute magnetization    =    32.10 Bohr mag/cell

     iteration # 11     ecut=    60.00 Ry     beta= 0.30
     Davidson diagonalization with overlap
     ethr =  6.53E-10,  avg # of iterations =  4.0

     negative rho (up, down):  0.000E+00 3.093E-03

     total cpu time spent up to now is    25273.1 secs

     total energy              =   -3488.70094149 Ry
     estimated scf accuracy    <       0.00000017 Ry

     total magnetization       =    32.00 Bohr mag/cell
     absolute magnetization    =    32.10 Bohr mag/cell

     iteration # 12     ecut=    60.00 Ry     beta= 0.30
     Davidson diagonalization with overlap
     ethr =  6.90E-11,  avg # of iterations =  4.9

     negative rho (up, down):  0.000E+00 3.093E-03

     total cpu time spent up to now is    25358.8 secs

     total energy              =   -3488.70094150 Ry
     estimated scf accuracy    <       0.00000034 Ry

     total magnetization       =    32.00 Bohr mag/cell
     absolute magnetization    =    32.10 Bohr mag/cell

     iteration # 13     ecut=    60.00 Ry     beta= 0.30
     Davidson diagonalization with overlap
     ethr =  6.90E-11,  avg # of iterations =  1.2

     negative rho (up, down):  0.000E+00 3.093E-03

     total cpu time spent up to now is    25412.3 secs

     total energy              =   -3488.70094138 Ry
     estimated scf accuracy    <       0.00000018 Ry

     total magnetization       =    32.00 Bohr mag/cell
     absolute magnetization    =    32.10 Bohr mag/cell

     iteration # 14     ecut=    60.00 Ry     beta= 0.30
     Davidson diagonalization with overlap
     ethr =  6.90E-11,  avg # of iterations =  5.5

     negative rho (up, down):  0.000E+00 3.093E-03

     total cpu time spent up to now is    25525.4 secs

     total energy              =   -3488.70094151 Ry
     estimated scf accuracy    <       0.00000029 Ry

     total magnetization       =    32.00 Bohr mag/cell
     absolute magnetization    =    32.10 Bohr mag/cell

     iteration # 15     ecut=    60.00 Ry     beta= 0.30
     Davidson diagonalization with overlap
     ethr =  6.90E-11,  avg # of iterations =  1.0

     negative rho (up, down):  0.000E+00 3.093E-03

     total cpu time spent up to now is    25577.6 secs

     total energy              =   -3488.70094144 Ry
     estimated scf accuracy    <       0.00000015 Ry

     total magnetization       =    32.00 Bohr mag/cell
     absolute magnetization    =    32.10 Bohr mag/cell

     iteration # 16     ecut=    60.00 Ry     beta= 0.30
     Davidson diagonalization with overlap
     ethr =  6.40E-11,  avg # of iterations =  4.5

     negative rho (up, down):  0.000E+00 3.093E-03

     total cpu time spent up to now is    25663.0 secs

     total energy              =   -3488.70094149 Ry
     estimated scf accuracy    <       0.00000001 Ry

     total magnetization       =    32.00 Bohr mag/cell
     absolute magnetization    =    32.10 Bohr mag/cell

     iteration # 17     ecut=    60.00 Ry     beta= 0.30
     Davidson diagonalization with overlap
     ethr =  4.63E-12,  avg # of iterations =  5.5

     negative rho (up, down):  0.000E+00 3.093E-03

     total cpu time spent up to now is    25744.9 secs

     total energy              =   -3488.70094150 Ry
     estimated scf accuracy    <          8.1E-09 Ry

     total magnetization       =    32.00 Bohr mag/cell
     absolute magnetization    =    32.10 Bohr mag/cell

     iteration # 18     ecut=    60.00 Ry     beta= 0.30
     Davidson diagonalization with overlap
     ethr =  3.39E-12,  avg # of iterations =  6.8

     negative rho (up, down):  0.000E+00 3.093E-03

     total cpu time spent up to now is    25878.4 secs

     total energy              =   -3488.70094150 Ry
     estimated scf accuracy    <       0.00000007 Ry

     total magnetization       =    32.00 Bohr mag/cell
     absolute magnetization    =    32.10 Bohr mag/cell

     iteration # 19     ecut=    60.00 Ry     beta= 0.30
     Davidson diagonalization with overlap
     ethr =  3.39E-12,  avg # of iterations =  5.5

     negative rho (up, down):  0.000E+00 3.093E-03

     total cpu time spent up to now is    25982.3 secs

     total energy              =   -3488.70094151 Ry
     estimated scf accuracy    <       0.00000001 Ry

     total magnetization       =    32.00 Bohr mag/cell
     absolute magnetization    =    32.10 Bohr mag/cell

     iteration # 20     ecut=    60.00 Ry     beta= 0.30
     Davidson diagonalization with overlap
     ethr =  3.39E-12,  avg # of iterations =  1.4

     negative rho (up, down):  0.000E+00 3.093E-03

     total cpu time spent up to now is    26040.6 secs

     total energy              =   -3488.70094150 Ry
     estimated scf accuracy    <          7.5E-09 Ry

     total magnetization       =    32.00 Bohr mag/cell
     absolute magnetization    =    32.10 Bohr mag/cell

     iteration # 21     ecut=    60.00 Ry     beta= 0.30
     Davidson diagonalization with overlap
     ethr =  3.13E-12,  avg # of iterations =  5.2

     negative rho (up, down):  0.000E+00 3.093E-03

     Magnetic moment per site:
     atom:    1    charge:   13.3640    magn:    3.3177    constr:    0.0000
     atom:    2    charge:   13.3640    magn:    3.3177    constr:    0.0000
     atom:    3    charge:   13.3640    magn:    3.3177    constr:    0.0000
     atom:    4    charge:   13.3640    magn:    3.3177    constr:    0.0000
     atom:    5    charge:   13.3275    magn:    3.4158    constr:    0.0000
     atom:    6    charge:   13.3275    magn:    3.4158    constr:    0.0000
     atom:    7    charge:   13.3275    magn:    3.4158    constr:    0.0000
     atom:    8    charge:   13.3275    magn:    3.4158    constr:    0.0000
     atom:    9    charge:    0.3880    magn:    0.0042    constr:    0.0000
     atom:   10    charge:    0.3880    magn:    0.0042    constr:    0.0000
     atom:   11    charge:    0.3880    magn:    0.0042    constr:    0.0000
     atom:   12    charge:    0.3880    magn:    0.0042    constr:    0.0000
     atom:   13    charge:    4.0295    magn:    0.1040    constr:    0.0000
     atom:   14    charge:    4.0295    magn:    0.1040    constr:    0.0000
     atom:   15    charge:    4.0295    magn:    0.1040    constr:    0.0000
     atom:   16    charge:    4.0295    magn:    0.1040    constr:    0.0000
     atom:   17    charge:    4.0229    magn:    0.1179    constr:    0.0000
     atom:   18    charge:    4.0229    magn:    0.1179    constr:    0.0000
     atom:   19    charge:    4.0229    magn:    0.1179    constr:    0.0000
     atom:   20    charge:    4.0229    magn:    0.1179    constr:    0.0000
     atom:   21    charge:    4.0207    magn:    0.1201    constr:    0.0000
     atom:   22    charge:    4.0207    magn:    0.1201    constr:    0.0000
     atom:   23    charge:    4.0207    magn:    0.1201    constr:    0.0000
     atom:   24    charge:    4.0207    magn:    0.1201    constr:    0.0000
     atom:   25    charge:    4.0207    magn:    0.1201    constr:    0.0000
     atom:   26    charge:    4.0207    magn:    0.1201    constr:    0.0000
     atom:   27    charge:    4.0207    magn:    0.1201    constr:    0.0000
     atom:   28    charge:    4.0207    magn:    0.1201    constr:    0.0000

     total cpu time spent up to now is    26138.6 secs

     End of self-consistent calculation

 ------ SPIN UP ------------


          k = 0.0000 0.0000 0.0000 ( 15339 PWs)   bands (ev):

   -79.3388 -79.3388 -79.3388 -79.3388 -79.1135 -79.1135 -79.1116 -79.1116
   -46.0076 -46.0076 -46.0063 -46.0063 -45.6164 -45.6164 -45.6105 -45.6105
   -45.2792 -45.2792 -45.2790 -45.2790 -45.0743 -45.0742 -45.0718 -45.0718
   -44.8629 -44.8628 -44.8621 -44.8620 -44.8453 -44.8453 -44.8174 -44.8174
   -11.3582 -11.1318 -10.9031 -10.7471  -9.7541  -9.7210  -9.7113  -9.6582
    -9.6418  -9.5284  -9.4835  -9.4623  -9.4475  -9.3996  -9.3753  -9.3118
     1.0536   1.0753   1.5532   1.5693   1.6490   1.7146   2.3227   2.3274
     2.3281   2.8275   2.9423   2.9959   3.1229   3.5850   3.7265   3.7900
     4.0061   4.0607   4.0684   4.1309   4.2671   4.3577   4.3712   4.4275
     4.4401   4.5339   4.5405   4.5438   4.6219   4.6895   4.7343   4.7687
     4.8391   4.9521   4.9758   4.9922   5.1738   5.2109   5.3379   5.3637
     5.3905   5.6667   5.9858   6.0052   6.0246   6.1847   6.1878   6.3630
     6.7606   6.9987   7.0333   7.0490   7.1042   7.1472   7.1774   7.3162
     7.3660   7.3899   7.3948   7.5142   7.5355   7.5655   7.8237   7.8431
     7.8668   7.9833   8.0063   8.0396   8.0624   8.0768   8.0965   8.2025
     8.3323   8.3384   8.3487   8.4025   8.6084   8.7323   8.8861   8.9343
     8.9632   9.0254   9.2070   9.2539   9.2842   9.4167   9.4348   9.6157
    11.3683  13.3501  13.9297  15.2405  15.7766  16.2700  16.3372  16.3656

          k = 0.0000 0.0000-0.3924 ( 15392 PWs)   bands (ev):

   -79.3389 -79.3389 -79.3389 -79.3389 -79.1126 -79.1126 -79.1126 -79.1126
   -46.0070 -46.0070 -46.0070 -46.0070 -45.6135 -45.6135 -45.6135 -45.6135
   -45.2791 -45.2791 -45.2791 -45.2791 -45.0730 -45.0730 -45.0730 -45.0730
   -44.8625 -44.8625 -44.8625 -44.8625 -44.8315 -44.8315 -44.8315 -44.8315
   -11.0749 -11.0749 -10.9864 -10.9864  -9.7320  -9.7320  -9.7001  -9.7001
    -9.6563  -9.6563  -9.4724  -9.4724  -9.4085  -9.4085  -9.3142  -9.3142
     1.3297   1.3297   1.4115   1.4115   2.0678   2.0678   2.1391   2.1391
     2.7481   2.7481   3.2197   3.2197   3.4465   3.4465   3.6988   3.6988
     3.7459   3.7459   3.9857   3.9857   4.1504   4.1504   4.3594   4.3594
     4.4230   4.4230   4.5057   4.5057   4.7157   4.7157   4.7534   4.7534
     4.8448   4.8448   5.0451   5.0451   5.1191   5.1191   5.4637   5.4637
     5.6232   5.6232   5.6804   5.6804   5.8046   5.8046   5.9252   5.9252
     7.0532   7.0532   7.0585   7.0585   7.1933   7.1933   7.2031   7.2031
     7.4914   7.4914   7.5343   7.5343   7.6020   7.6020   7.7507   7.7507
     8.0140   8.0140   8.0361   8.0361   8.0945   8.0945   8.1443   8.1443
     8.4194   8.4194   8.5231   8.5231   8.7339   8.7339   8.7545   8.7545
     8.8801   8.8801   8.9044   8.9044   9.1934   9.1934   9.4503   9.4503
    13.2884  13.2884  14.4174  14.4174  15.1361  15.1361  16.6355  16.6355

          k =-0.4876 0.0000 0.0000 ( 15374 PWs)   bands (ev):

   -79.3389 -79.3389 -79.3388 -79.3388 -79.1135 -79.1135 -79.1116 -79.1116
   -46.0070 -46.0070 -46.0069 -46.0069 -45.6165 -45.6165 -45.6105 -45.6105
   -45.2791 -45.2791 -45.2791 -45.2791 -45.0742 -45.0742 -45.0718 -45.0718
   -44.8625 -44.8625 -44.8624 -44.8624 -44.8453 -44.8453 -44.8175 -44.8175
   -10.9756 -10.9756 -10.7093 -10.7093 -10.0802 -10.0802  -9.8597  -9.8597
    -9.5940  -9.5940  -9.4224  -9.4224  -9.4084  -9.4084  -9.3814  -9.3814
     1.1161   1.1161   1.2189   1.2189   2.6768   2.6768   2.7725   2.7725
     2.9860   2.9860   3.0216   3.0216   3.2846   3.2846   3.3419   3.3419
     3.5630   3.5630   3.5847   3.5847   3.7469   3.7469   4.2521   4.2521
     4.3647   4.3647   4.4296   4.4296   4.8451   4.8451   4.9108   4.9108
     4.9813   4.9813   5.1076   5.1076   5.2435   5.2435   5.5471   5.5471
     5.6339   5.6339   5.8042   5.8042   6.0100   6.0100   6.6795   6.6795
     6.9967   6.9967   7.0530   7.0530   7.1328   7.1328   7.2293   7.2293
     7.2898   7.2898   7.3246   7.3246   7.4810   7.4810   7.7596   7.7596
     7.8426   7.8426   8.0444   8.0444   8.1381   8.1381   8.1970   8.1970
     8.5173   8.5173   8.7340   8.7340   8.7439   8.7439   8.8482   8.8482
     8.9518   8.9518   9.0088   9.0088   9.1737   9.1737   9.3786   9.3786
    13.9434  13.9434  14.8160  14.8160  15.2080  15.2080  15.4977  15.4977

          k =-0.4876 0.0000-0.3924 ( 15436 PWs)   bands (ev):

   -79.3389 -79.3389 -79.3389 -79.3389 -79.1126 -79.1126 -79.1126 -79.1126
   -46.0070 -46.0070 -46.0070 -46.0070 -45.6135 -45.6135 -45.6135 -45.6135
   -45.2791 -45.2791 -45.2791 -45.2791 -45.0730 -45.0730 -45.0730 -45.0730
   -44.8625 -44.8625 -44.8624 -44.8624 -44.8315 -44.8315 -44.8314 -44.8314
   -10.8403 -10.8403 -10.8082 -10.8082  -9.9779  -9.9779  -9.9729  -9.9729
    -9.5847  -9.5847  -9.5172  -9.5172  -9.3864  -9.3864  -9.3736  -9.3736
     1.2751   1.2751   1.2797   1.2797   2.7309   2.7309   2.8999   2.8999
     3.0691   3.0691   3.1526   3.1526   3.1805   3.1805   3.3869   3.3869
     3.5242   3.5242   3.6355   3.6355   3.7437   3.7437   3.8513   3.8513
     4.2889   4.2889   4.5769   4.5769   5.0028   5.0028   5.0791   5.0791
     5.1561   5.1561   5.2529   5.2529   5.2696   5.2696   5.3128   5.3128
     5.5092   5.5092   5.6016   5.6016   5.8832   5.8832   6.0432   6.0432
     7.0308   7.0308   7.1332   7.1332   7.2698   7.2698   7.2797   7.2797
     7.3175   7.3175   7.4498   7.4498   7.6862   7.6862   7.7052   7.7052
     7.7855   7.7855   7.9215   7.9215   7.9869   7.9869   8.0909   8.0909
     8.4290   8.4290   8.4309   8.4309   8.4425   8.4425   8.8095   8.8095
     8.9808   8.9808   9.0409   9.0409   9.1695   9.1695   9.5799   9.5799
    14.9177  14.9177  14.9839  14.9839  15.7687  15.7990  15.8095  15.8544

 ------ SPIN DOWN ----------


          k = 0.0000 0.0000 0.0000 ( 15339 PWs)   bands (ev):

   -75.1133 -75.1133 -75.1132 -75.1131 -75.0369 -75.0368 -75.0348 -75.0347
   -41.4325 -41.4324 -41.4305 -41.4304 -41.3089 -41.3089 -41.3006 -41.3006
   -41.2531 -41.2528 -41.2523 -41.2522 -41.1806 -41.1802 -41.1767 -41.1767
   -41.1092 -41.1091 -41.0873 -41.0872 -41.0863 -41.0861 -41.0759 -41.0759
   -11.1425 -10.9197 -10.6896 -10.5365  -9.5341  -9.4923  -9.4802  -9.4281
    -9.4037  -9.2787  -9.2396  -9.2154  -9.1933  -9.1485  -9.1194  -9.0588
     1.3209   1.3288   1.7686   1.8537   1.9113   2.0785   2.6694   2.6859
     2.7620   3.2169   3.2795   3.3515   3.5119   4.0254   4.0498   4.0936
     4.4388   4.6072   4.7635   4.8178   4.8291   4.9402   4.9474   4.9521
     4.9932   5.1018   5.1540   5.1586   5.3528   5.3767   5.4774   5.5091
     5.5517   5.5774   5.6876   5.7073   5.7856   5.7982   5.8597   5.9655
     6.2114   6.3572   6.4388   6.4633   6.6436   6.6735   6.7296   6.9099
     9.8626   9.9114  10.2186  10.2276  10.3352  10.3690  10.4204  10.4351
    10.4463  10.5534  10.6286  10.8519  10.9315  10.9549  10.9697  10.9776
    11.0028  11.0672  11.0846  11.1913  11.1924  11.1962  11.3667  11.3764
    11.8595  11.8979  11.9317  11.9900  11.9958  12.1617  12.2037  12.2768
    12.3099  12.3208  12.3476  12.4342  12.4540  12.4766  12.5364  12.7788
    12.7864  13.9337  14.4400  15.6749  16.1349  16.7302  16.7500  16.7856

          k = 0.0000 0.0000-0.3924 ( 15392 PWs)   bands (ev):

   -75.1133 -75.1133 -75.1133 -75.1133 -75.0359 -75.0359 -75.0359 -75.0359
   -41.4316 -41.4316 -41.4316 -41.4316 -41.3047 -41.3047 -41.3047 -41.3047
   -41.2527 -41.2527 -41.2525 -41.2525 -41.1786 -41.1786 -41.1784 -41.1784
   -41.0931 -41.0931 -41.0928 -41.0928 -41.0868 -41.0868 -41.0865 -41.0865
   -10.8608 -10.8608 -10.7746 -10.7746  -9.4965  -9.4965  -9.4753  -9.4753
    -9.4169  -9.4169  -9.2248  -9.2248  -9.1566  -9.1566  -9.0623  -9.0623
     1.5874   1.5874   1.6576   1.6576   2.4413   2.4413   2.4874   2.4874
     3.1148   3.1148   3.5546   3.5546   3.8198   3.8198   4.0596   4.0596
     4.2608   4.2608   4.5447   4.5447   4.7704   4.7704   4.8751   4.8751
     4.9611   4.9611   5.1488   5.1488   5.3518   5.3518   5.3773   5.3773
     5.6302   5.6302   5.7625   5.7625   5.8392   5.8392   6.0433   6.0433
     6.0841   6.0841   6.1657   6.1657   6.5521   6.5521   6.6794   6.6794
    10.3067  10.3067  10.3364  10.3364  10.4023  10.4023  10.4102  10.4102
    10.6163  10.6163  10.7201  10.7201  10.8564  10.8564  10.8826  10.8826
    10.9805  10.9805  11.0141  11.0141  11.2019  11.2019  11.2970  11.2970
    11.7884  11.7884  11.9134  11.9134  12.1675  12.1675  12.1786  12.1786
    12.3312  12.3312  12.3761  12.3761  12.5581  12.5581  12.6316  12.6316
    13.9040  13.9040  14.9330  14.9330  15.6446  15.6446  16.9921  16.9921

          k =-0.4876 0.0000 0.0000 ( 15374 PWs)   bands (ev):

   -75.1133 -75.1133 -75.1132 -75.1132 -75.0370 -75.0370 -75.0347 -75.0347
   -41.4315 -41.4315 -41.4315 -41.4315 -41.3090 -41.3090 -41.3006 -41.3006
   -41.2527 -41.2527 -41.2524 -41.2524 -41.1805 -41.1805 -41.1767 -41.1767
   -41.1092 -41.1092 -41.0868 -41.0868 -41.0867 -41.0867 -41.0759 -41.0759
   -10.7636 -10.7636 -10.4899 -10.4899  -9.8564  -9.8564  -9.6372  -9.6372
    -9.3453  -9.3453  -9.1690  -9.1690  -9.1591  -9.1591  -9.1364  -9.1364
     1.4099   1.4099   1.4557   1.4557   3.0094   3.0094   3.0884   3.0884
     3.4031   3.4031   3.4191   3.4191   3.7090   3.7090   3.7784   3.7784
     3.9838   3.9838   4.0882   4.0882   4.1344   4.1344   4.6182   4.6182
     4.9749   4.9749   5.0999   5.0999   5.5541   5.5541   5.6697   5.6697
     5.8194   5.8194   5.8571   5.8571   6.0519   6.0519   6.1137   6.1137
     6.2955   6.2955   6.4461   6.4461   6.5665   6.5665   7.0765   7.0765
     9.8985   9.8985  10.1423  10.1423  10.3534  10.3534  10.4595  10.4595
    10.5820  10.5820  10.7017  10.7017  10.9958  10.9958  11.0095  11.0095
    11.0816  11.0816  11.1459  11.1459  11.1696  11.1696  11.4255  11.4255
    11.8950  11.8950  12.0096  12.0096  12.0598  12.0598  12.1723  12.1723
    12.2146  12.2146  12.4140  12.4140  12.4675  12.4675  12.6474  12.6474
    14.3909  14.3909  15.1597  15.1597  15.7884  15.7884  16.0879  16.0879

          k =-0.4876 0.0000-0.3924 ( 15436 PWs)   bands (ev):

   -75.1134 -75.1134 -75.1133 -75.1133 -75.0359 -75.0359 -75.0359 -75.0359
   -41.4316 -41.4316 -41.4316 -41.4316 -41.3048 -41.3048 -41.3046 -41.3046
   -41.2527 -41.2527 -41.2524 -41.2524 -41.1786 -41.1786 -41.1784 -41.1784
   -41.0931 -41.0931 -41.0928 -41.0928 -41.0868 -41.0868 -41.0865 -41.0865
   -10.6254 -10.6254 -10.5933 -10.5933  -9.7554  -9.7554  -9.7476  -9.7476
    -9.3363  -9.3363  -9.2686  -9.2686  -9.1347  -9.1347  -9.1261  -9.1261
     1.5419   1.5419   1.5725   1.5725   3.1261   3.1261   3.3079   3.3079
     3.4511   3.4511   3.5548   3.5548   3.5843   3.5843   3.7365   3.7365
     3.9858   3.9858   4.0380   4.0380   4.3070   4.3070   4.3448   4.3448
     4.7146   4.7146   5.0637   5.0637   5.5388   5.5388   5.5635   5.5635
     5.7902   5.7902   5.8837   5.8837   6.1550   6.1550   6.1940   6.1940
     6.2742   6.2742   6.3290   6.3290   6.4534   6.4534   6.6668   6.6668
    10.2293  10.2293  10.2490  10.2490  10.4197  10.4197  10.4443  10.4443
    10.6952  10.6952  10.7210  10.7210  10.8981  10.8981  10.9011  10.9011
    11.0361  11.0361  11.1066  11.1066  11.1551  11.1551  11.2226  11.2226
    11.7268  11.7268  11.7612  11.7612  11.9736  11.9736  12.0403  12.0403
    12.1927  12.1927  12.3280  12.3280  12.5065  12.5065  12.8122  12.8122
    15.3638  15.3638  15.5091  15.5091  16.2757  16.2758  16.2890  16.2890

     the Fermi energy is    10.5203 ev

!    total energy              =   -3488.70094151 Ry

     total all-electron energy =    -25094.006909 Ry
     estimated scf accuracy    <          1.6E-09 Ry
     smearing contrib. (-TS)   =      -0.01072590 Ry
     internal energy E=F+TS    =   -3488.69021561 Ry

     The total energy is F=E-TS. E is the sum of the following terms:
     one-electron contribution =   -1482.91439719 Ry
     hartree contribution      =     868.48847151 Ry
     xc contribution           =    -368.40234975 Ry
     ewald contribution        =   -1548.10672149 Ry
     one-center paw contrib.   =    -957.75521868 Ry

     total magnetization       =    32.00 Bohr mag/cell
     absolute magnetization    =    32.10 Bohr mag/cell

     convergence has been achieved in  21 iterations

     negative rho (up, down):  0.000E+00 3.093E-03

     Forces acting on atoms (cartesian axes, Ry/au):

     atom    1 type  1   force =     0.00000000    0.00000000    0.00000000
     atom    2 type  1   force =    -0.00000000    0.00000000    0.00000000
     atom    3 type  1   force =     0.00000000    0.00000000    0.00000000
     atom    4 type  1   force =     0.00000000    0.00000000    0.00000000
     atom    5 type  1   force =    -0.00000035    0.00021105    0.00000000
     atom    6 type  1   force =     0.00000035   -0.00021105    0.00000000
     atom    7 type  1   force =    -0.00000035   -0.00021105    0.00000000
     atom    8 type  1   force =     0.00000035    0.00021105   -0.00000000
     atom    9 type  2   force =    -0.00068486   -0.00023915    0.00000000
     atom   10 type  2   force =     0.00068486    0.00023915    0.00000000
     atom   11 type  2   force =    -0.00068486    0.00023915    0.00000000
     atom   12 type  2   force =     0.00068486   -0.00023915    0.00000000
     atom   13 type  3   force =    -0.00035589   -0.00046652    0.00000000
     atom   14 type  3   force =     0.00035589    0.00046652    0.00000000
     atom   15 type  3   force =    -0.00035589    0.00046652    0.00000000
     atom   16 type  3   force =     0.00035589   -0.00046652    0.00000000
     atom   17 type  3   force =    -0.00057451   -0.00059511    0.00000000
     atom   18 type  3   force =     0.00057451    0.00059511    0.00000000
     atom   19 type  3   force =    -0.00057451    0.00059511    0.00000000
     atom   20 type  3   force =     0.00057451   -0.00059511   -0.00000000
     atom   21 type  3   force =    -0.00027675    0.00050064    0.00017763
     atom   22 type  3   force =     0.00027675   -0.00050064   -0.00017763
     atom   23 type  3   force =    -0.00027675   -0.00050064   -0.00017763
     atom   24 type  3   force =     0.00027675    0.00050064    0.00017763
     atom   25 type  3   force =     0.00027675   -0.00050064    0.00017763
     atom   26 type  3   force =    -0.00027675    0.00050064   -0.00017763
     atom   27 type  3   force =     0.00027675    0.00050064   -0.00017763
     atom   28 type  3   force =    -0.00027675   -0.00050064    0.00017763

     Total force =     0.003044     Total SCF correction =     0.000088


     Computing stress (Cartesian axis) and pressure


     negative rho (up, down):  0.000E+00 3.093E-03
          total   stress  (Ry/bohr**3)                   (kbar)     P=       -0.16
   0.00000042   0.00000000   0.00000000            0.06        0.00        0.00
   0.00000000  -0.00000192   0.00000000            0.00       -0.28        0.00
   0.00000000   0.00000000  -0.00000187            0.00        0.00       -0.27

     Energy error            =      2.5E-05
     Gradient error          =      6.8E-04
     Cell gradient error     =      1.9E-06


     number of scf cycles    =  16
     number of bfgs steps    =  15

     enthalpy old            =   -3488.7009163327 Ry
     enthalpy new            =   -3488.7009415065 Ry

     CASE: enthalpy_new < enthalpy_old

     new trust radius        =       0.0025829691 bohr
     new conv_thr            =       0.0000000025 Ry

     new unit-cell volume =   2091.49068 a.u.^3 (   309.92694 Ang^3 )
     density =      4.36709 g/cm^3

CELL_PARAMETERS (angstrom)
   4.875279192   0.000000000   0.000000000
   0.000000000  10.494874141   0.000000000
   0.000000000   0.000000000   6.057349130

ATOMIC_POSITIONS (angstrom)
Fe            0.0000000000       -0.0000000000        0.0000000000
Fe            2.4376395962        5.2474370705        0.0000000000
Fe           -0.0000000000        0.0000000000        3.0286745648
Fe            2.4376395962        5.2474370705        3.0286745648
Fe            0.0965659417        2.9283598433        4.5430118473
Fe            4.7787132506        7.5665142978        1.5143372824
Fe            2.5342055378        2.3190772273        1.5143372824
Fe            2.3410736545        8.1757969138        4.5430118473
Si            0.3466395246        4.2318285605        1.5143372824
Si            4.5286396677        6.2630455806        4.5430118473
Si            2.7842791208        1.0156085100        4.5430118473
Si            2.0910000715        9.4792656310        1.5143372824
O             1.1463666137        0.9932894544        4.5430118473
O             3.7289125786        9.5015846866        1.5143372824
O             3.5840062098        4.2541476161        1.5143372824
O             1.2912729825        6.2407265250        4.5430118473
O             1.4482637263        0.5221200416        1.5143372824
O             3.4270154660        9.9727540995        4.5430118473
O             3.8859033225        4.7253170290        4.5430118473
O             0.9893758698        5.7695571121        1.5143372824
O             1.0498147717        3.5018189060        2.8206404218
O             3.8254644206        6.9930552351        3.2367087078
O             3.4874543679        1.7456181646        3.2367087078
O             1.3878248244        8.7492559765        2.8206404218
O             3.8254644206        6.9930552351        5.8493149867
O             1.0498147717        3.5018189060        0.2080341430
O             1.3878248244        8.7492559765        0.2080341430
O             3.4874543679        1.7456181646        5.8493149867



     Writing output data file ./out/oliv.save/
     NEW-OLD atomic charge density approx. for the potential

     Check: negative core charge=   -0.000002

     negative rho (up, down):  0.000E+00 3.086E-03
     extrapolated charge  240.02713, renormalised to  240.00000
     Generating pointlists ...

     total cpu time spent up to now is    26191.5 secs

     Self-consistent Calculation

     iteration #  1     ecut=    60.00 Ry     beta= 0.30
     Davidson diagonalization with overlap
     ethr =  1.00E-06,  avg # of iterations =  5.6

     Threshold (ethr) on eigenvalues was too large:
     Diagonalizing with lowered threshold

     Davidson diagonalization with overlap
     ethr =  3.31E-08,  avg # of iterations =  6.2

     negative rho (up, down):  0.000E+00 3.090E-03

     total cpu time spent up to now is    26420.9 secs

     total energy              =   -3488.70089500 Ry
     estimated scf accuracy    <       0.00008012 Ry

     total magnetization       =    32.00 Bohr mag/cell
     absolute magnetization    =    32.10 Bohr mag/cell

     iteration #  2     ecut=    60.00 Ry     beta= 0.30
     Davidson diagonalization with overlap
     ethr =  3.34E-08,  avg # of iterations =  4.1

     negative rho (up, down):  0.000E+00 3.089E-03

     total cpu time spent up to now is    26500.9 secs

     total energy              =   -3488.70091600 Ry
     estimated scf accuracy    <       0.00066649 Ry

     total magnetization       =    32.00 Bohr mag/cell
     absolute magnetization    =    32.10 Bohr mag/cell

     iteration #  3     ecut=    60.00 Ry     beta= 0.30
     Davidson diagonalization with overlap
     ethr =  3.34E-08,  avg # of iterations =  2.0

     negative rho (up, down):  0.000E+00 3.089E-03

     total cpu time spent up to now is    26558.2 secs

     total energy              =   -3488.70094109 Ry
     estimated scf accuracy    <       0.00043365 Ry

     total magnetization       =    32.00 Bohr mag/cell
     absolute magnetization    =    32.10 Bohr mag/cell

     iteration #  4     ecut=    60.00 Ry     beta= 0.30
     Davidson diagonalization with overlap
     ethr =  3.34E-08,  avg # of iterations =  1.9

     negative rho (up, down):  0.000E+00 3.088E-03

     total cpu time spent up to now is    26614.3 secs

     total energy              =   -3488.70095048 Ry
     estimated scf accuracy    <       0.00002202 Ry

     total magnetization       =    32.00 Bohr mag/cell
     absolute magnetization    =    32.10 Bohr mag/cell

     iteration #  5     ecut=    60.00 Ry     beta= 0.30
     Davidson diagonalization with overlap
     ethr =  9.18E-09,  avg # of iterations =  2.0

     negative rho (up, down):  0.000E+00 3.088E-03

     total cpu time spent up to now is    26677.4 secs

     total energy              =   -3488.70095415 Ry
     estimated scf accuracy    <       0.00000405 Ry

     total magnetization       =    32.00 Bohr mag/cell
     absolute magnetization    =    32.10 Bohr mag/cell

     iteration #  6     ecut=    60.00 Ry     beta= 0.30
     Davidson diagonalization with overlap
     ethr =  1.69E-09,  avg # of iterations =  4.4

     negative rho (up, down):  0.000E+00 3.089E-03

     total cpu time spent up to now is    26770.3 secs

     total energy              =   -3488.70095659 Ry
     estimated scf accuracy    <       0.00000410 Ry

     total magnetization       =    32.00 Bohr mag/cell
     absolute magnetization    =    32.10 Bohr mag/cell

     iteration #  7     ecut=    60.00 Ry     beta= 0.30
     Davidson diagonalization with overlap
     ethr =  1.69E-09,  avg # of iterations =  2.0

     negative rho (up, down):  0.000E+00 3.089E-03

     total cpu time spent up to now is    26828.5 secs

     total energy              =   -3488.70095688 Ry
     estimated scf accuracy    <       0.00000070 Ry

     total magnetization       =    32.00 Bohr mag/cell
     absolute magnetization    =    32.10 Bohr mag/cell

     iteration #  8     ecut=    60.00 Ry     beta= 0.30
     Davidson diagonalization with overlap
     ethr =  2.93E-10,  avg # of iterations =  5.2

     negative rho (up, down):  0.000E+00 3.089E-03

     total cpu time spent up to now is    26917.7 secs

     total energy              =   -3488.70095726 Ry
     estimated scf accuracy    <       0.00000231 Ry

     total magnetization       =    32.00 Bohr mag/cell
     absolute magnetization    =    32.10 Bohr mag/cell

     iteration #  9     ecut=    60.00 Ry     beta= 0.30
     Davidson diagonalization with overlap
     ethr =  2.93E-10,  avg # of iterations =  2.0

     negative rho (up, down):  0.000E+00 3.089E-03

     total cpu time spent up to now is    26956.3 secs

     total energy              =   -3488.70095707 Ry
     estimated scf accuracy    <       0.00000086 Ry

     total magnetization       =    32.00 Bohr mag/cell
     absolute magnetization    =    32.10 Bohr mag/cell

     iteration # 10     ecut=    60.00 Ry     beta= 0.30
     Davidson diagonalization with overlap
     ethr =  2.93E-10,  avg # of iterations =  2.8

     negative rho (up, down):  0.000E+00 3.089E-03

     total cpu time spent up to now is    26995.5 secs

     total energy              =   -3488.70095716 Ry
     estimated scf accuracy    <       0.00000007 Ry

     total magnetization       =    32.00 Bohr mag/cell
     absolute magnetization    =    32.10 Bohr mag/cell

     iteration # 11     ecut=    60.00 Ry     beta= 0.30
     Davidson diagonalization with overlap
     ethr =  2.96E-11,  avg # of iterations =  5.8

     negative rho (up, down):  0.000E+00 3.089E-03

     total cpu time spent up to now is    27069.2 secs

     total energy              =   -3488.70095722 Ry
     estimated scf accuracy    <       0.00000004 Ry

     total magnetization       =    32.00 Bohr mag/cell
     absolute magnetization    =    32.10 Bohr mag/cell

     iteration # 12     ecut=    60.00 Ry     beta= 0.30
     Davidson diagonalization with overlap
     ethr =  1.69E-11,  avg # of iterations =  1.9

     negative rho (up, down):  0.000E+00 3.089E-03

     total cpu time spent up to now is    27112.5 secs

     total energy              =   -3488.70095721 Ry
     estimated scf accuracy    <       0.00000003 Ry

     total magnetization       =    32.00 Bohr mag/cell
     absolute magnetization    =    32.10 Bohr mag/cell

     iteration # 13     ecut=    60.00 Ry     beta= 0.30
     Davidson diagonalization with overlap
     ethr =  1.30E-11,  avg # of iterations =  6.4

     negative rho (up, down):  0.000E+00 3.089E-03

     total cpu time spent up to now is    27210.5 secs

     total energy              =   -3488.70095723 Ry
     estimated scf accuracy    <       0.00000014 Ry

     total magnetization       =    32.00 Bohr mag/cell
     absolute magnetization    =    32.10 Bohr mag/cell

     iteration # 14     ecut=    60.00 Ry     beta= 0.30
     Davidson diagonalization with overlap
     ethr =  1.30E-11,  avg # of iterations =  3.1

     negative rho (up, down):  0.000E+00 3.089E-03

     total cpu time spent up to now is    27258.0 secs

     total energy              =   -3488.70095719 Ry
     estimated scf accuracy    <       0.00000006 Ry

     total magnetization       =    32.00 Bohr mag/cell
     absolute magnetization    =    32.10 Bohr mag/cell

     iteration # 15     ecut=    60.00 Ry     beta= 0.30
     Davidson diagonalization with overlap
     ethr =  1.30E-11,  avg # of iterations =  6.1

     negative rho (up, down):  0.000E+00 3.089E-03

     total cpu time spent up to now is    27342.6 secs

     total energy              =   -3488.70095722 Ry
     estimated scf accuracy    <       0.00000006 Ry

     total magnetization       =    32.00 Bohr mag/cell
     absolute magnetization    =    32.10 Bohr mag/cell

     iteration # 16     ecut=    60.00 Ry     beta= 0.30
     Davidson diagonalization with overlap
     ethr =  1.30E-11,  avg # of iterations =  2.0

     negative rho (up, down):  0.000E+00 3.089E-03

     total cpu time spent up to now is    27385.7 secs

     total energy              =   -3488.70095723 Ry
     estimated scf accuracy    <       0.00000002 Ry

     total magnetization       =    32.00 Bohr mag/cell
     absolute magnetization    =    32.10 Bohr mag/cell

     iteration # 17     ecut=    60.00 Ry     beta= 0.30
     Davidson diagonalization with overlap
     ethr =  9.02E-12,  avg # of iterations =  2.9

     negative rho (up, down):  0.000E+00 3.089E-03

     total cpu time spent up to now is    27436.5 secs

     total energy              =   -3488.70095723 Ry
     estimated scf accuracy    <          8.8E-09 Ry

     total magnetization       =    32.00 Bohr mag/cell
     absolute magnetization    =    32.10 Bohr mag/cell

     iteration # 18     ecut=    60.00 Ry     beta= 0.30
     Davidson diagonalization with overlap
     ethr =  3.68E-12,  avg # of iterations =  5.1

     negative rho (up, down):  0.000E+00 3.089E-03

     Magnetic moment per site:
     atom:    1    charge:   13.3639    magn:    3.3181    constr:    0.0000
     atom:    2    charge:   13.3639    magn:    3.3181    constr:    0.0000
     atom:    3    charge:   13.3639    magn:    3.3181    constr:    0.0000
     atom:    4    charge:   13.3639    magn:    3.3181    constr:    0.0000
     atom:    5    charge:   13.3276    magn:    3.4153    constr:    0.0000
     atom:    6    charge:   13.3276    magn:    3.4153    constr:    0.0000
     atom:    7    charge:   13.3276    magn:    3.4153    constr:    0.0000
     atom:    8    charge:   13.3276    magn:    3.4153    constr:    0.0000
     atom:    9    charge:    0.3880    magn:    0.0043    constr:    0.0000
     atom:   10    charge:    0.3880    magn:    0.0043    constr:    0.0000
     atom:   11    charge:    0.3880    magn:    0.0043    constr:    0.0000
     atom:   12    charge:    0.3880    magn:    0.0043    constr:    0.0000
     atom:   13    charge:    4.0296    magn:    0.1039    constr:    0.0000
     atom:   14    charge:    4.0296    magn:    0.1039    constr:    0.0000
     atom:   15    charge:    4.0296    magn:    0.1039    constr:    0.0000
     atom:   16    charge:    4.0296    magn:    0.1039    constr:    0.0000
     atom:   17    charge:    4.0231    magn:    0.1179    constr:    0.0000
     atom:   18    charge:    4.0231    magn:    0.1179    constr:    0.0000
     atom:   19    charge:    4.0231    magn:    0.1179    constr:    0.0000
     atom:   20    charge:    4.0231    magn:    0.1179    constr:    0.0000
     atom:   21    charge:    4.0208    magn:    0.1201    constr:    0.0000
     atom:   22    charge:    4.0208    magn:    0.1201    constr:    0.0000
     atom:   23    charge:    4.0208    magn:    0.1201    constr:    0.0000
     atom:   24    charge:    4.0208    magn:    0.1201    constr:    0.0000
     atom:   25    charge:    4.0208    magn:    0.1201    constr:    0.0000
     atom:   26    charge:    4.0208    magn:    0.1201    constr:    0.0000
     atom:   27    charge:    4.0208    magn:    0.1201    constr:    0.0000
     atom:   28    charge:    4.0208    magn:    0.1201    constr:    0.0000

     total cpu time spent up to now is    27508.3 secs

     End of self-consistent calculation

 ------ SPIN UP ------------


          k = 0.0000 0.0000 0.0000 ( 15339 PWs)   bands (ev):

   -79.3388 -79.3388 -79.3388 -79.3387 -79.1158 -79.1157 -79.1139 -79.1139
   -46.0089 -46.0089 -46.0076 -46.0076 -45.6193 -45.6193 -45.6133 -45.6133
   -45.2785 -45.2785 -45.2783 -45.2782 -45.0763 -45.0762 -45.0739 -45.0738
   -44.8622 -44.8622 -44.8614 -44.8614 -44.8472 -44.8472 -44.8193 -44.8193
   -11.3604 -11.1348 -10.9052 -10.7496  -9.7570  -9.7240  -9.7141  -9.6610
    -9.6432  -9.5287  -9.4851  -9.4628  -9.4495  -9.4012  -9.3759  -9.3125
     1.0510   1.0736   1.5521   1.5693   1.6472   1.7130   2.3219   2.3250
     2.3275   2.8231   2.9407   2.9961   3.1200   3.5841   3.7263   3.7890
     4.0050   4.0603   4.0674   4.1290   4.2655   4.3571   4.3711   4.4254
     4.4369   4.5304   4.5400   4.5411   4.6213   4.6870   4.7313   4.7657
     4.8372   4.9498   4.9743   4.9921   5.1743   5.2086   5.3350   5.3615
     5.3899   5.6660   5.9849   6.0027   6.0244   6.1824   6.1847   6.3614
     6.7588   6.9974   7.0319   7.0475   7.1041   7.1454   7.1761   7.3146
     7.3650   7.3880   7.3942   7.5150   7.5343   7.5656   7.8220   7.8406
     7.8641   7.9833   8.0058   8.0394   8.0626   8.0757   8.0961   8.2026
     8.3322   8.3382   8.3462   8.4008   8.6053   8.7311   8.8827   8.9318
     8.9621   9.0254   9.2082   9.2522   9.2849   9.4155   9.4327   9.6138
    11.3670  13.3479  13.9260  15.2388  15.7760  16.2673  16.3327  16.3605

          k = 0.0000 0.0000-0.3924 ( 15392 PWs)   bands (ev):

   -79.3388 -79.3388 -79.3388 -79.3388 -79.1148 -79.1148 -79.1148 -79.1148
   -46.0083 -46.0083 -46.0083 -46.0083 -45.6163 -45.6163 -45.6163 -45.6163
   -45.2784 -45.2784 -45.2784 -45.2784 -45.0750 -45.0750 -45.0750 -45.0750
   -44.8618 -44.8618 -44.8618 -44.8618 -44.8333 -44.8333 -44.8333 -44.8333
   -11.0771 -11.0771 -10.9890 -10.9890  -9.7343  -9.7343  -9.7030  -9.7030
    -9.6577  -9.6577  -9.4738  -9.4738  -9.4096  -9.4096  -9.3153  -9.3153
     1.3282   1.3282   1.4091   1.4091   2.0677   2.0677   2.1381   2.1381
     2.7471   2.7471   3.2180   3.2180   3.4446   3.4446   3.6968   3.6968
     3.7447   3.7447   3.9830   3.9830   4.1488   4.1488   4.3580   4.3580
     4.4210   4.4210   4.5046   4.5046   4.7133   4.7133   4.7523   4.7523
     4.8430   4.8430   5.0444   5.0444   5.1173   5.1173   5.4627   5.4627
     5.6212   5.6212   5.6780   5.6780   5.8051   5.8051   5.9229   5.9229
     7.0523   7.0523   7.0570   7.0570   7.1921   7.1921   7.2009   7.2009
     7.4899   7.4899   7.5341   7.5341   7.6007   7.6007   7.7497   7.7497
     8.0130   8.0130   8.0351   8.0351   8.0945   8.0945   8.1440   8.1440
     8.4179   8.4179   8.5206   8.5206   8.7327   8.7327   8.7528   8.7528
     8.8795   8.8795   8.9023   8.9023   9.1928   9.1928   9.4479   9.4479
    13.2874  13.2874  14.4154  14.4154  15.1328  15.1328  16.6323  16.6324

          k =-0.4876 0.0000 0.0000 ( 15374 PWs)   bands (ev):

   -79.3388 -79.3388 -79.3388 -79.3388 -79.1158 -79.1158 -79.1139 -79.1139
   -46.0082 -46.0082 -46.0082 -46.0082 -45.6193 -45.6193 -45.6133 -45.6133
   -45.2784 -45.2784 -45.2783 -45.2783 -45.0762 -45.0762 -45.0738 -45.0738
   -44.8619 -44.8619 -44.8618 -44.8618 -44.8472 -44.8472 -44.8193 -44.8193
   -10.9780 -10.9780 -10.7117 -10.7117 -10.0835 -10.0835  -9.8620  -9.8620
    -9.5958  -9.5958  -9.4228  -9.4228  -9.4090  -9.4090  -9.3832  -9.3832
     1.1154   1.1154   1.2188   1.2188   2.6751   2.6751   2.7706   2.7706
     2.9853   2.9853   3.0195   3.0195   3.2821   3.2821   3.3399   3.3399
     3.5605   3.5605   3.5823   3.5823   3.7450   3.7450   4.2508   4.2508
     4.3621   4.3621   4.4296   4.4296   4.8421   4.8421   4.9085   4.9085
     4.9799   4.9799   5.1065   5.1065   5.2425   5.2425   5.5452   5.5452
     5.6329   5.6329   5.8032   5.8032   6.0082   6.0082   6.6787   6.6787
     6.9954   6.9954   7.0517   7.0517   7.1330   7.1330   7.2274   7.2274
     7.2879   7.2879   7.3245   7.3245   7.4796   7.4796   7.7583   7.7583
     7.8399   7.8399   8.0448   8.0448   8.1378   8.1378   8.1969   8.1969
     8.5158   8.5158   8.7312   8.7312   8.7430   8.7430   8.8472   8.8472
     8.9494   8.9494   9.0078   9.0078   9.1735   9.1735   9.3779   9.3779
    13.9416  13.9416  14.8144  14.8144  15.2061  15.2061  15.4992  15.4992

          k =-0.4876 0.0000-0.3924 ( 15436 PWs)   bands (ev):

   -79.3389 -79.3389 -79.3388 -79.3388 -79.1149 -79.1149 -79.1149 -79.1149
   -46.0083 -46.0083 -46.0083 -46.0083 -45.6163 -45.6163 -45.6163 -45.6163
   -45.2784 -45.2784 -45.2783 -45.2783 -45.0751 -45.0751 -45.0750 -45.0750
   -44.8618 -44.8618 -44.8618 -44.8618 -44.8333 -44.8333 -44.8333 -44.8333
   -10.8427 -10.8427 -10.8106 -10.8106  -9.9808  -9.9808  -9.9755  -9.9755
    -9.5863  -9.5863  -9.5182  -9.5182  -9.3878  -9.3878  -9.3745  -9.3745
     1.2750   1.2750   1.2790   1.2790   2.7291   2.7291   2.8974   2.8974
     3.0664   3.0664   3.1529   3.1529   3.1779   3.1779   3.3863   3.3863
     3.5226   3.5226   3.6338   3.6338   3.7418   3.7418   3.8501   3.8501
     4.2873   4.2873   4.5742   4.5742   5.0009   5.0009   5.0757   5.0757
     5.1553   5.1553   5.2513   5.2513   5.2675   5.2675   5.3101   5.3101
     5.5079   5.5079   5.6000   5.6000   5.8837   5.8837   6.0430   6.0430
     7.0302   7.0302   7.1320   7.1320   7.2679   7.2679   7.2781   7.2781
     7.3175   7.3175   7.4486   7.4486   7.6844   7.6844   7.7040   7.7040
     7.7842   7.7842   7.9213   7.9213   7.9859   7.9859   8.0898   8.0898
     8.4282   8.4282   8.4300   8.4300   8.4420   8.4420   8.8087   8.8087
     8.9788   8.9788   9.0389   9.0389   9.1672   9.1672   9.5781   9.5781
    14.9166  14.9166  14.9834  14.9834  15.7673  15.7963  15.8037  15.8536

 ------ SPIN DOWN ----------


          k = 0.0000 0.0000 0.0000 ( 15339 PWs)   bands (ev):

   -75.1138 -75.1138 -75.1137 -75.1136 -75.0386 -75.0384 -75.0365 -75.0364
   -41.4334 -41.4333 -41.4313 -41.4313 -41.3107 -41.3107 -41.3024 -41.3024
   -41.2533 -41.2530 -41.2525 -41.2524 -41.1825 -41.1821 -41.1786 -41.1785
   -41.1106 -41.1105 -41.0877 -41.0876 -41.0867 -41.0866 -41.0772 -41.0772
   -11.1448 -10.9227 -10.6917 -10.5390  -9.5370  -9.4954  -9.4831  -9.4311
    -9.4051  -9.2791  -9.2412  -9.2159  -9.1953  -9.1502  -9.1201  -9.0595
     1.3183   1.3269   1.7672   1.8518   1.9112   2.0770   2.6687   2.6851
     2.7596   3.2129   3.2796   3.3501   3.5093   4.0244   4.0488   4.0924
     4.4374   4.6064   4.7617   4.8171   4.8255   4.9367   4.9462   4.9511
     4.9910   5.1006   5.1515   5.1540   5.3524   5.3752   5.4748   5.5072
     5.5517   5.5772   5.6850   5.7075   5.7830   5.7981   5.8574   5.9634
     6.2098   6.3542   6.4370   6.4631   6.6424   6.6720   6.7283   6.9087
     9.8607   9.9097  10.2190  10.2273  10.3346  10.3673  10.4188  10.4339
    10.4448  10.5521  10.6275  10.8510  10.9304  10.9545  10.9693  10.9765
    11.0031  11.0662  11.0838  11.1897  11.1918  11.1956  11.3656  11.3754
    11.8588  11.8971  11.9296  11.9891  11.9928  12.1604  12.2021  12.2760
    12.3094  12.3185  12.3479  12.4337  12.4540  12.4743  12.5359  12.7776
    12.7844  13.9307  14.4360  15.6733  16.1344  16.7257  16.7451  16.7806

          k = 0.0000 0.0000-0.3924 ( 15392 PWs)   bands (ev):

   -75.1138 -75.1138 -75.1138 -75.1138 -75.0376 -75.0376 -75.0376 -75.0376
   -41.4324 -41.4324 -41.4324 -41.4324 -41.3065 -41.3065 -41.3065 -41.3065
   -41.2529 -41.2529 -41.2527 -41.2527 -41.1805 -41.1805 -41.1803 -41.1803
   -41.0944 -41.0944 -41.0941 -41.0941 -41.0872 -41.0872 -41.0870 -41.0870
   -10.8631 -10.8631 -10.7772 -10.7772  -9.4991  -9.4991  -9.4782  -9.4782
    -9.4182  -9.4182  -9.2262  -9.2262  -9.1577  -9.1577  -9.0634  -9.0634
     1.5858   1.5858   1.6553   1.6553   2.4411   2.4411   2.4865   2.4865
     3.1138   3.1138   3.5531   3.5531   3.8179   3.8179   4.0578   4.0578
     4.2597   4.2597   4.5425   4.5425   4.7685   4.7685   4.8729   4.8729
     4.9591   4.9591   5.1466   5.1466   5.3504   5.3504   5.3755   5.3755
     5.6280   5.6280   5.7604   5.7604   5.8369   5.8369   6.0424   6.0424
     6.0830   6.0830   6.1636   6.1636   6.5523   6.5523   6.6775   6.6775
    10.3055  10.3055  10.3352  10.3352  10.4012  10.4012  10.4086  10.4086
    10.6161  10.6161  10.7200  10.7200  10.8554  10.8554  10.8818  10.8818
    10.9800  10.9800  11.0125  11.0125  11.2016  11.2016  11.2960  11.2960
    11.7868  11.7868  11.9116  11.9116  12.1669  12.1669  12.1769  12.1769
    12.3309  12.3309  12.3745  12.3745  12.5568  12.5568  12.6288  12.6288
    13.9038  13.9038  14.9306  14.9306  15.6413  15.6413  16.9886  16.9886

          k =-0.4876 0.0000 0.0000 ( 15374 PWs)   bands (ev):

   -75.1138 -75.1138 -75.1137 -75.1137 -75.0386 -75.0386 -75.0364 -75.0364
   -41.4324 -41.4324 -41.4323 -41.4323 -41.3108 -41.3108 -41.3024 -41.3024
   -41.2529 -41.2529 -41.2526 -41.2526 -41.1823 -41.1823 -41.1786 -41.1786
   -41.1106 -41.1106 -41.0872 -41.0872 -41.0872 -41.0872 -41.0772 -41.0772
   -10.7660 -10.7660 -10.4923 -10.4923  -9.8597  -9.8597  -9.6397  -9.6397
    -9.3470  -9.3470  -9.1695  -9.1695  -9.1597  -9.1597  -9.1382  -9.1382
     1.4090   1.4090   1.4557   1.4557   3.0077   3.0077   3.0864   3.0864
     3.4013   3.4013   3.4175   3.4175   3.7066   3.7066   3.7763   3.7763
     3.9817   3.9817   4.0859   4.0859   4.1327   4.1327   4.6149   4.6149
     4.9739   4.9739   5.0992   5.0992   5.5521   5.5521   5.6688   5.6688
     5.8167   5.8167   5.8549   5.8549   6.0506   6.0506   6.1122   6.1122
     6.2952   6.2952   6.4454   6.4454   6.5648   6.5648   7.0754   7.0754
     9.8972   9.8972  10.1416  10.1416  10.3521  10.3521  10.4578  10.4578
    10.5809  10.5809  10.7013  10.7013  10.9955  10.9955  11.0086  11.0086
    11.0820  11.0820  11.1442  11.1442  11.1691  11.1691  11.4246  11.4246
    11.8932  11.8932  12.0083  12.0083  12.0584  12.0584  12.1707  12.1707
    12.2139  12.2139  12.4119  12.4119  12.4665  12.4665  12.6468  12.6468
    14.3890  14.3890  15.1572  15.1572  15.7869  15.7869  16.0896  16.0896

          k =-0.4876 0.0000-0.3924 ( 15436 PWs)   bands (ev):

   -75.1139 -75.1139 -75.1138 -75.1138 -75.0376 -75.0376 -75.0376 -75.0376
   -41.4325 -41.4325 -41.4324 -41.4324 -41.3066 -41.3066 -41.3065 -41.3065
   -41.2529 -41.2529 -41.2526 -41.2526 -41.1805 -41.1805 -41.1803 -41.1803
   -41.0944 -41.0944 -41.0942 -41.0942 -41.0872 -41.0872 -41.0869 -41.0869
   -10.6278 -10.6278 -10.5958 -10.5958  -9.7583  -9.7583  -9.7503  -9.7503
    -9.3378  -9.3378  -9.2697  -9.2697  -9.1362  -9.1362  -9.1270  -9.1270
     1.5412   1.5412   1.5723   1.5723   3.1241   3.1241   3.3055   3.3055
     3.4485   3.4485   3.5548   3.5548   3.5817   3.5817   3.7353   3.7353
     3.9846   3.9846   4.0354   4.0354   4.3060   4.3060   4.3428   4.3428
     4.7129   4.7129   5.0607   5.0607   5.5362   5.5362   5.5611   5.5611
     5.7883   5.7883   5.8825   5.8825   6.1536   6.1536   6.1923   6.1923
     6.2728   6.2728   6.3283   6.3283   6.4533   6.4533   6.6652   6.6652
    10.2287  10.2287  10.2477  10.2477  10.4181  10.4181  10.4426  10.4426
    10.6945  10.6945  10.7203  10.7203  10.8976  10.8976  10.9001  10.9001
    11.0362  11.0362  11.1062  11.1062  11.1546  11.1546  11.2212  11.2212
    11.7255  11.7255  11.7598  11.7598  11.9727  11.9727  12.0391  12.0391
    12.1907  12.1907  12.3269  12.3269  12.5037  12.5037  12.8104  12.8104
    15.3619  15.3619  15.5078  15.5078  16.2727  16.2727  16.2862  16.2862

     the Fermi energy is    10.5191 ev

!    total energy              =   -3488.70095723 Ry

     total all-electron energy =    -25094.006925 Ry
     estimated scf accuracy    <          2.4E-10 Ry
     smearing contrib. (-TS)   =      -0.01068928 Ry
     internal energy E=F+TS    =   -3488.69026795 Ry

     The total energy is F=E-TS. E is the sum of the following terms:
     one-electron contribution =   -1483.08978330 Ry
     hartree contribution      =     868.56551577 Ry
     xc contribution           =    -368.40442828 Ry
     ewald contribution        =   -1548.00622819 Ry
     one-center paw contrib.   =    -957.75534395 Ry

     total magnetization       =    32.00 Bohr mag/cell
     absolute magnetization    =    32.10 Bohr mag/cell

     convergence has been achieved in  18 iterations

     negative rho (up, down):  0.000E+00 3.089E-03

     Forces acting on atoms (cartesian axes, Ry/au):

     atom    1 type  1   force =     0.00000000    0.00000000   -0.00000000
     atom    2 type  1   force =     0.00000000    0.00000000    0.00000000
     atom    3 type  1   force =     0.00000000    0.00000000    0.00000000
     atom    4 type  1   force =    -0.00000000    0.00000000    0.00000000
     atom    5 type  1   force =    -0.00009170   -0.00003905   -0.00000000
     atom    6 type  1   force =     0.00009170    0.00003905    0.00000000
     atom    7 type  1   force =    -0.00009170    0.00003905    0.00000000
     atom    8 type  1   force =     0.00009170   -0.00003905   -0.00000000
     atom    9 type  2   force =    -0.00030535   -0.00029300    0.00000000
     atom   10 type  2   force =     0.00030535    0.00029300    0.00000000
     atom   11 type  2   force =    -0.00030535    0.00029300   -0.00000000
     atom   12 type  2   force =     0.00030535   -0.00029300   -0.00000000
     atom   13 type  3   force =    -0.00034255   -0.00034831    0.00000000
     atom   14 type  3   force =     0.00034255    0.00034831   -0.00000000
     atom   15 type  3   force =    -0.00034255    0.00034831   -0.00000000
     atom   16 type  3   force =     0.00034255   -0.00034831    0.00000000
     atom   17 type  3   force =    -0.00020956   -0.00023828   -0.00000000
     atom   18 type  3   force =     0.00020956    0.00023828    0.00000000
     atom   19 type  3   force =    -0.00020956    0.00023828    0.00000000
     atom   20 type  3   force =     0.00020956   -0.00023828   -0.00000000
     atom   21 type  3   force =    -0.00026878    0.00030216    0.00047145
     atom   22 type  3   force =     0.00026878   -0.00030216   -0.00047145
     atom   23 type  3   force =    -0.00026878   -0.00030216   -0.00047145
     atom   24 type  3   force =     0.00026878    0.00030216    0.00047145
     atom   25 type  3   force =     0.00026878   -0.00030216    0.00047145
     atom   26 type  3   force =    -0.00026878    0.00030216   -0.00047145
     atom   27 type  3   force =     0.00026878    0.00030216   -0.00047145
     atom   28 type  3   force =    -0.00026878   -0.00030216    0.00047145

     Total force =     0.002280     Total SCF correction =     0.000032


     Computing stress (Cartesian axis) and pressure


     negative rho (up, down):  0.000E+00 3.089E-03
          total   stress  (Ry/bohr**3)                   (kbar)     P=        0.10
   0.00000025   0.00000000   0.00000000            0.04        0.00        0.00
   0.00000000  -0.00000147   0.00000000            0.00       -0.22        0.00
   0.00000000   0.00000000   0.00000318            0.00        0.00        0.47

     Energy error            =      1.6E-05
     Gradient error          =      4.7E-04
     Cell gradient error     =      3.2E-06


     number of scf cycles    =  17
     number of bfgs steps    =  16

     enthalpy old            =   -3488.7009415065 Ry
     enthalpy new            =   -3488.7009572306 Ry

     CASE: enthalpy_new < enthalpy_old

     new trust radius        =       0.0022350312 bohr
     new conv_thr            =       0.0000000016 Ry

     new unit-cell volume =   2091.85635 a.u.^3 (   309.98113 Ang^3 )
     density =      4.36633 g/cm^3

CELL_PARAMETERS (angstrom)
   4.875396884   0.000000000   0.000000000
   0.000000000  10.496426213   0.000000000
   0.000000000   0.000000000   6.057366106

ATOMIC_POSITIONS (angstrom)
Fe            0.0000000000       -0.0000000000        0.0000000000
Fe            2.4376984419        5.2482131067        0.0000000000
Fe           -0.0000000000        0.0000000000        3.0286830530
Fe            2.4376984419        5.2482131067        3.0286830530
Fe            0.0961364794        2.9296457580        4.5430245795
Fe            4.7792604045        7.5667804554        1.5143415265
Fe            2.5338349213        2.3185673487        1.5143415265
Fe            2.3415619626        8.1778588647        4.5430245795
Si            0.3458574536        4.2321585611        1.5143415265
Si            4.5295394302        6.2642676523        4.5430245795
Si            2.7835558956        1.0160545456        4.5430245795
Si            2.0918409883        9.4803716678        1.5143415265
O             1.1456259701        0.9928794512        4.5430245795
O             3.7297709137        9.5035467622        1.5143415265
O             3.5833244121        4.2553336555        1.5143415265
O             1.2920724718        6.2410925579        4.5430245795
O             1.4475909851        0.5212494751        1.5143415265
O             3.4278058987        9.9751767383        4.5430245795
O             3.8852894271        4.7269636316        4.5430245795
O             0.9901074568        5.7694625818        1.5143415265
O             1.0492475926        3.5027333607        2.8208270586
O             3.8261492912        6.9936928527        3.2365390474
O             3.4869460346        1.7454797460        3.2365390474
O             1.3884508493        8.7509464674        2.8208270586
O             3.8261492912        6.9936928527        5.8495101116
O             1.0492475926        3.5027333607        0.2078559944
O             1.3884508493        8.7509464674        0.2078559944
O             3.4869460346        1.7454797460        5.8495101116



     Writing output data file ./out/oliv.save/
     NEW-OLD atomic charge density approx. for the potential

     Check: negative core charge=   -0.000002

     negative rho (up, down):  0.000E+00 3.086E-03
     extrapolated charge  240.04195, renormalised to  240.00000
     Generating pointlists ...

     total cpu time spent up to now is    27553.9 secs

     Self-consistent Calculation

     iteration #  1     ecut=    60.00 Ry     beta= 0.30
     Davidson diagonalization with overlap
     ethr =  1.00E-06,  avg # of iterations =  3.5

     Threshold (ethr) on eigenvalues was too large:
     Diagonalizing with lowered threshold

     Davidson diagonalization with overlap
     ethr =  6.00E-08,  avg # of iterations =  5.6

     negative rho (up, down):  0.000E+00 3.092E-03

     total cpu time spent up to now is    27694.1 secs

     total energy              =   -3488.70083504 Ry
     estimated scf accuracy    <       0.00016363 Ry

     total magnetization       =    32.00 Bohr mag/cell
     absolute magnetization    =    32.10 Bohr mag/cell

     iteration #  2     ecut=    60.00 Ry     beta= 0.30
     Davidson diagonalization with overlap
     ethr =  6.82E-08,  avg # of iterations =  4.4

     negative rho (up, down):  0.000E+00 3.091E-03

     total cpu time spent up to now is    27761.2 secs

     total energy              =   -3488.70088098 Ry
     estimated scf accuracy    <       0.00169751 Ry

     total magnetization       =    32.00 Bohr mag/cell
     absolute magnetization    =    32.10 Bohr mag/cell

     iteration #  3     ecut=    60.00 Ry     beta= 0.30
     Davidson diagonalization with overlap
     ethr =  6.82E-08,  avg # of iterations =  2.0

     negative rho (up, down):  0.000E+00 3.089E-03

     total cpu time spent up to now is    27805.6 secs

     total energy              =   -3488.70094403 Ry
     estimated scf accuracy    <       0.00083400 Ry

     total magnetization       =    32.00 Bohr mag/cell
     absolute magnetization    =    32.10 Bohr mag/cell

     iteration #  4     ecut=    60.00 Ry     beta= 0.30
     Davidson diagonalization with overlap
     ethr =  6.82E-08,  avg # of iterations =  1.9

     negative rho (up, down):  0.000E+00 3.089E-03

     total cpu time spent up to now is    27845.3 secs

     total energy              =   -3488.70096296 Ry
     estimated scf accuracy    <       0.00004705 Ry

     total magnetization       =    32.00 Bohr mag/cell
     absolute magnetization    =    32.10 Bohr mag/cell

     iteration #  5     ecut=    60.00 Ry     beta= 0.30
     Davidson diagonalization with overlap
     ethr =  1.96E-08,  avg # of iterations =  2.0

     negative rho (up, down):  0.000E+00 3.088E-03

     total cpu time spent up to now is    27887.6 secs

     total energy              =   -3488.70096073 Ry
     estimated scf accuracy    <       0.00001587 Ry

     total magnetization       =    32.00 Bohr mag/cell
     absolute magnetization    =    32.10 Bohr mag/cell

     iteration #  6     ecut=    60.00 Ry     beta= 0.30
     Davidson diagonalization with overlap
     ethr =  6.61E-09,  avg # of iterations =  4.5

     negative rho (up, down):  0.000E+00 3.088E-03

     total cpu time spent up to now is    27951.7 secs

     total energy              =   -3488.70096634 Ry
     estimated scf accuracy    <       0.00000304 Ry

     total magnetization       =    32.00 Bohr mag/cell
     absolute magnetization    =    32.10 Bohr mag/cell

     iteration #  7     ecut=    60.00 Ry     beta= 0.30
     Davidson diagonalization with overlap
     ethr =  1.27E-09,  avg # of iterations =  4.5

     negative rho (up, down):  0.000E+00 3.089E-03

     total cpu time spent up to now is    28011.2 secs

     total energy              =   -3488.70096614 Ry
     estimated scf accuracy    <       0.00000268 Ry

     total magnetization       =    32.00 Bohr mag/cell
     absolute magnetization    =    32.10 Bohr mag/cell

     iteration #  8     ecut=    60.00 Ry     beta= 0.30
     Davidson diagonalization with overlap
     ethr =  1.12E-09,  avg # of iterations =  2.0

     negative rho (up, down):  0.000E+00 3.089E-03

     total cpu time spent up to now is    28058.8 secs

     total energy              =   -3488.70096664 Ry
     estimated scf accuracy    <       0.00000051 Ry

     total magnetization       =    32.00 Bohr mag/cell
     absolute magnetization    =    32.10 Bohr mag/cell

     iteration #  9     ecut=    60.00 Ry     beta= 0.30
     Davidson diagonalization with overlap
     ethr =  2.12E-10,  avg # of iterations =  5.2

     negative rho (up, down):  0.000E+00 3.089E-03

     total cpu time spent up to now is    28128.6 secs

     total energy              =   -3488.70096691 Ry
     estimated scf accuracy    <       0.00000149 Ry

     total magnetization       =    32.00 Bohr mag/cell
     absolute magnetization    =    32.10 Bohr mag/cell

     iteration # 10     ecut=    60.00 Ry     beta= 0.30
     Davidson diagonalization with overlap
     ethr =  2.12E-10,  avg # of iterations =  1.5

     negative rho (up, down):  0.000E+00 3.089E-03

     total cpu time spent up to now is    28166.0 secs

     total energy              =   -3488.70096634 Ry
     estimated scf accuracy    <       0.00000110 Ry

     total magnetization       =    32.00 Bohr mag/cell
     absolute magnetization    =    32.10 Bohr mag/cell

     iteration # 11     ecut=    60.00 Ry     beta= 0.30
     Davidson diagonalization with overlap
     ethr =  2.12E-10,  avg # of iterations =  6.5

     negative rho (up, down):  0.000E+00 3.089E-03

     total cpu time spent up to now is    28234.5 secs

     total energy              =   -3488.70096667 Ry
     estimated scf accuracy    <       0.00000022 Ry

     total magnetization       =    32.00 Bohr mag/cell
     absolute magnetization    =    32.10 Bohr mag/cell

     iteration # 12     ecut=    60.00 Ry     beta= 0.30
     Davidson diagonalization with overlap
     ethr =  9.12E-11,  avg # of iterations =  2.0

     negative rho (up, down):  0.000E+00 3.089E-03

     total cpu time spent up to now is    28275.4 secs

     total energy              =   -3488.70096665 Ry
     estimated scf accuracy    <       0.00000007 Ry

     total magnetization       =    32.00 Bohr mag/cell
     absolute magnetization    =    32.10 Bohr mag/cell

     iteration # 13     ecut=    60.00 Ry     beta= 0.30
     Davidson diagonalization with overlap
     ethr =  3.12E-11,  avg # of iterations =  4.9

     negative rho (up, down):  0.000E+00 3.089E-03

     total cpu time spent up to now is    28329.1 secs

     total energy              =   -3488.70096669 Ry
     estimated scf accuracy    <       0.00000002 Ry

     total magnetization       =    32.00 Bohr mag/cell
     absolute magnetization    =    32.10 Bohr mag/cell

     iteration # 14     ecut=    60.00 Ry     beta= 0.30
     Davidson diagonalization with overlap
     ethr =  9.72E-12,  avg # of iterations =  2.0

     negative rho (up, down):  0.000E+00 3.089E-03

     total cpu time spent up to now is    28363.1 secs

     total energy              =   -3488.70096669 Ry
     estimated scf accuracy    <       0.00000001 Ry

     total magnetization       =    32.00 Bohr mag/cell
     absolute magnetization    =    32.10 Bohr mag/cell

     iteration # 15     ecut=    60.00 Ry     beta= 0.30
     Davidson diagonalization with overlap
     ethr =  4.42E-12,  avg # of iterations =  5.5

     negative rho (up, down):  0.000E+00 3.089E-03

     total cpu time spent up to now is    28435.9 secs

     total energy              =   -3488.70096670 Ry
     estimated scf accuracy    <       0.00000003 Ry

     total magnetization       =    32.00 Bohr mag/cell
     absolute magnetization    =    32.10 Bohr mag/cell

     iteration # 16     ecut=    60.00 Ry     beta= 0.30
     Davidson diagonalization with overlap
     ethr =  4.42E-12,  avg # of iterations =  2.0

     negative rho (up, down):  0.000E+00 3.089E-03

     total cpu time spent up to now is    28476.6 secs

     total energy              =   -3488.70096669 Ry
     estimated scf accuracy    <       0.00000001 Ry

     total magnetization       =    32.00 Bohr mag/cell
     absolute magnetization    =    32.10 Bohr mag/cell

     iteration # 17     ecut=    60.00 Ry     beta= 0.30
     Davidson diagonalization with overlap
     ethr =  4.42E-12,  avg # of iterations =  4.6

     negative rho (up, down):  0.000E+00 3.089E-03

     Magnetic moment per site:
     atom:    1    charge:   13.3638    magn:    3.3186    constr:    0.0000
     atom:    2    charge:   13.3638    magn:    3.3186    constr:    0.0000
     atom:    3    charge:   13.3638    magn:    3.3186    constr:    0.0000
     atom:    4    charge:   13.3638    magn:    3.3186    constr:    0.0000
     atom:    5    charge:   13.3277    magn:    3.4147    constr:    0.0000
     atom:    6    charge:   13.3277    magn:    3.4147    constr:    0.0000
     atom:    7    charge:   13.3277    magn:    3.4147    constr:    0.0000
     atom:    8    charge:   13.3277    magn:    3.4147    constr:    0.0000
     atom:    9    charge:    0.3880    magn:    0.0043    constr:    0.0000
     atom:   10    charge:    0.3880    magn:    0.0043    constr:    0.0000
     atom:   11    charge:    0.3880    magn:    0.0043    constr:    0.0000
     atom:   12    charge:    0.3880    magn:    0.0043    constr:    0.0000
     atom:   13    charge:    4.0295    magn:    0.1039    constr:    0.0000
     atom:   14    charge:    4.0295    magn:    0.1039    constr:    0.0000
     atom:   15    charge:    4.0295    magn:    0.1039    constr:    0.0000
     atom:   16    charge:    4.0295    magn:    0.1039    constr:    0.0000
     atom:   17    charge:    4.0231    magn:    0.1179    constr:    0.0000
     atom:   18    charge:    4.0231    magn:    0.1179    constr:    0.0000
     atom:   19    charge:    4.0231    magn:    0.1179    constr:    0.0000
     atom:   20    charge:    4.0231    magn:    0.1179    constr:    0.0000
     atom:   21    charge:    4.0208    magn:    0.1200    constr:    0.0000
     atom:   22    charge:    4.0208    magn:    0.1200    constr:    0.0000
     atom:   23    charge:    4.0208    magn:    0.1200    constr:    0.0000
     atom:   24    charge:    4.0208    magn:    0.1200    constr:    0.0000
     atom:   25    charge:    4.0208    magn:    0.1200    constr:    0.0000
     atom:   26    charge:    4.0208    magn:    0.1200    constr:    0.0000
     atom:   27    charge:    4.0208    magn:    0.1200    constr:    0.0000
     atom:   28    charge:    4.0208    magn:    0.1200    constr:    0.0000

     total cpu time spent up to now is    28539.5 secs

     End of self-consistent calculation

 ------ SPIN UP ------------


          k = 0.0000 0.0000 0.0000 ( 15339 PWs)   bands (ev):

   -79.3395 -79.3395 -79.3395 -79.3394 -79.1189 -79.1188 -79.1170 -79.1169
   -46.0105 -46.0105 -46.0092 -46.0092 -45.6228 -45.6228 -45.6169 -45.6169
   -45.2793 -45.2792 -45.2790 -45.2790 -45.0791 -45.0790 -45.0766 -45.0766
   -44.8620 -44.8620 -44.8612 -44.8612 -44.8501 -44.8500 -44.8221 -44.8221
   -11.3623 -11.1373 -10.9071 -10.7517  -9.7597  -9.7263  -9.7170  -9.6641
    -9.6444  -9.5306  -9.4860  -9.4646  -9.4505  -9.4019  -9.3779  -9.3145
     1.0478   1.0717   1.5500   1.5680   1.6449   1.7110   2.3205   2.3231
     2.3261   2.8199   2.9385   2.9963   3.1178   3.5823   3.7266   3.7871
     4.0026   4.0599   4.0668   4.1282   4.2629   4.3549   4.3692   4.4238
     4.4339   4.5259   4.5377   4.5381   4.6202   4.6838   4.7285   4.7632
     4.8344   4.9475   4.9712   4.9924   5.1731   5.2068   5.3316   5.3589
     5.3892   5.6642   5.9827   6.0008   6.0221   6.1807   6.1816   6.3588
     6.7563   6.9956   7.0299   7.0454   7.1028   7.1429   7.1742   7.3125
     7.3627   7.3855   7.3925   7.5145   7.5328   7.5642   7.8198   7.8372
     7.8601   7.9824   8.0035   8.0384   8.0621   8.0742   8.0943   8.2020
     8.3308   8.3366   8.3434   8.3986   8.6024   8.7292   8.8791   8.9293
     8.9605   9.0243   9.2086   9.2489   9.2848   9.4126   9.4304   9.6115
    11.3642  13.3458  13.9198  15.2371  15.7756  16.2633  16.3269  16.3576

          k = 0.0000 0.0000-0.3924 ( 15392 PWs)   bands (ev):

   -79.3395 -79.3395 -79.3395 -79.3395 -79.1179 -79.1179 -79.1179 -79.1179
   -46.0099 -46.0099 -46.0099 -46.0099 -45.6198 -45.6198 -45.6198 -45.6198
   -45.2792 -45.2792 -45.2791 -45.2791 -45.0778 -45.0778 -45.0778 -45.0778
   -44.8616 -44.8616 -44.8616 -44.8616 -44.8362 -44.8362 -44.8362 -44.8362
   -11.0791 -11.0791 -10.9912 -10.9912  -9.7364  -9.7364  -9.7059  -9.7059
    -9.6596  -9.6596  -9.4751  -9.4751  -9.4112  -9.4112  -9.3169  -9.3169
     1.3263   1.3263   1.4062   1.4062   2.0666   2.0666   2.1366   2.1366
     2.7456   2.7456   3.2159   3.2159   3.4428   3.4428   3.6945   3.6945
     3.7429   3.7429   3.9806   3.9806   4.1476   4.1476   4.3561   4.3561
     4.4179   4.4179   4.5029   4.5029   4.7102   4.7102   4.7502   4.7502
     4.8410   4.8410   5.0425   5.0425   5.1147   5.1147   5.4608   5.4608
     5.6196   5.6196   5.6757   5.6757   5.8047   5.8047   5.9207   5.9207
     7.0508   7.0508   7.0549   7.0549   7.1900   7.1900   7.1983   7.1983
     7.4877   7.4877   7.5327   7.5327   7.5984   7.5984   7.7478   7.7478
     8.0114   8.0114   8.0332   8.0332   8.0936   8.0936   8.1428   8.1428
     8.4155   8.4155   8.5174   8.5174   8.7306   8.7306   8.7507   8.7507
     8.8783   8.8783   8.8998   8.8998   9.1914   9.1914   9.4451   9.4451
    13.2848  13.2848  14.4121  14.4121  15.1280  15.1280  16.6293  16.6293

          k =-0.4876 0.0000 0.0000 ( 15374 PWs)   bands (ev):

   -79.3395 -79.3395 -79.3395 -79.3395 -79.1189 -79.1189 -79.1170 -79.1170
   -46.0099 -46.0099 -46.0099 -46.0099 -45.6228 -45.6228 -45.6169 -45.6169
   -45.2791 -45.2791 -45.2791 -45.2791 -45.0790 -45.0790 -45.0766 -45.0766
   -44.8617 -44.8617 -44.8616 -44.8616 -44.8500 -44.8500 -44.8221 -44.8221
   -10.9798 -10.9798 -10.7136 -10.7136 -10.0869 -10.0869  -9.8647  -9.8647
    -9.5968  -9.5968  -9.4247  -9.4247  -9.4110  -9.4110  -9.3840  -9.3840
     1.1135   1.1135   1.2176   1.2176   2.6734   2.6734   2.7685   2.7685
     2.9845   2.9845   3.0173   3.0173   3.2794   3.2794   3.3376   3.3376
     3.5587   3.5587   3.5794   3.5794   3.7428   3.7428   4.2495   4.2495
     4.3599   4.3599   4.4276   4.4276   4.8385   4.8385   4.9060   4.9060
     4.9775   4.9775   5.1038   5.1038   5.2419   5.2419   5.5441   5.5441
     5.6307   5.6307   5.8017   5.8017   6.0056   6.0056   6.6769   6.6769
     6.9934   6.9934   7.0498   7.0498   7.1322   7.1322   7.2251   7.2251
     7.2855   7.2855   7.3235   7.3235   7.4773   7.4773   7.7566   7.7566
     7.8361   7.8361   8.0443   8.0443   8.1359   8.1359   8.1960   8.1960
     8.5136   8.5136   8.7282   8.7282   8.7404   8.7404   8.8445   8.8445
     8.9469   8.9469   9.0064   9.0064   9.1728   9.1728   9.3762   9.3762
    13.9381  13.9381  14.8108  14.8108  15.2051  15.2051  15.4971  15.4971

          k =-0.4876 0.0000-0.3924 ( 15436 PWs)   bands (ev):

   -79.3395 -79.3395 -79.3395 -79.3395 -79.1180 -79.1180 -79.1180 -79.1180
   -46.0100 -46.0100 -46.0099 -46.0099 -45.6198 -45.6198 -45.6198 -45.6198
   -45.2792 -45.2792 -45.2791 -45.2791 -45.0778 -45.0778 -45.0778 -45.0778
   -44.8616 -44.8616 -44.8616 -44.8616 -44.8362 -44.8362 -44.8361 -44.8361
   -10.8444 -10.8444 -10.8125 -10.8125  -9.9839  -9.9839  -9.9785  -9.9785
    -9.5874  -9.5874  -9.5196  -9.5196  -9.3892  -9.3892  -9.3762  -9.3762
     1.2736   1.2736   1.2773   1.2773   2.7269   2.7269   2.8951   2.8951
     3.0641   3.0641   3.1523   3.1523   3.1752   3.1752   3.3848   3.3848
     3.5205   3.5205   3.6314   3.6314   3.7398   3.7398   3.8483   3.8483
     4.2853   4.2853   4.5709   4.5709   4.9984   4.9984   5.0728   5.0728
     5.1540   5.1540   5.2495   5.2495   5.2641   5.2641   5.3072   5.3072
     5.5066   5.5066   5.5980   5.5980   5.8832   5.8832   6.0420   6.0420
     7.0287   7.0287   7.1302   7.1302   7.2654   7.2654   7.2757   7.2757
     7.3160   7.3160   7.4463   7.4463   7.6820   7.6820   7.7019   7.7019
     7.7820   7.7820   7.9203   7.9203   7.9841   7.9841   8.0880   8.0880
     8.4266   8.4266   8.4284   8.4284   8.4408   8.4408   8.8071   8.8071
     8.9767   8.9767   9.0366   9.0366   9.1642   9.1642   9.5757   9.5757
    14.9130  14.9130  14.9820  14.9820  15.7662  15.7940  15.7984  15.8488

 ------ SPIN DOWN ----------


          k = 0.0000 0.0000 0.0000 ( 15339 PWs)   bands (ev):

   -75.1152 -75.1152 -75.1150 -75.1149 -75.0410 -75.0408 -75.0388 -75.0388
   -41.4350 -41.4350 -41.4330 -41.4330 -41.3132 -41.3132 -41.3049 -41.3049
   -41.2546 -41.2543 -41.2538 -41.2538 -41.1850 -41.1846 -41.1811 -41.1810
   -41.1127 -41.1126 -41.0888 -41.0888 -41.0878 -41.0877 -41.0793 -41.0792
   -11.1467 -10.9252 -10.6937 -10.5411  -9.5399  -9.4979  -9.4860  -9.4342
    -9.4061  -9.2810  -9.2421  -9.2179  -9.1962  -9.1509  -9.1222  -9.0617
     1.3151   1.3250   1.7648   1.8494   1.9098   2.0751   2.6672   2.6834
     2.7577   3.2098   3.2797   3.3480   3.5075   4.0225   4.0484   4.0905
     4.4365   4.6043   4.7605   4.8146   4.8223   4.9327   4.9456   4.9495
     4.9891   5.0992   5.1479   5.1503   5.3521   5.3721   5.4727   5.5033
     5.5499   5.5754   5.6812   5.7062   5.7812   5.7971   5.8545   5.9611
     6.2069   6.3518   6.4345   6.4606   6.6416   6.6701   6.7265   6.9066
     9.8586   9.9081  10.2190  10.2264  10.3332  10.3649  10.4162  10.4324
    10.4425  10.5499  10.6254  10.8495  10.9286  10.9529  10.9676  10.9743
    11.0018  11.0645  11.0823  11.1876  11.1899  11.1943  11.3633  11.3731
    11.8571  11.8954  11.9264  11.9869  11.9896  12.1586  12.2001  12.2747
    12.3079  12.3150  12.3471  12.4322  12.4533  12.4714  12.5343  12.7757
    12.7818  13.9280  14.4294  15.6717  16.1338  16.7192  16.7424  16.7773

          k = 0.0000 0.0000-0.3924 ( 15392 PWs)   bands (ev):

   -75.1151 -75.1151 -75.1151 -75.1151 -75.0399 -75.0399 -75.0399 -75.0399
   -41.4341 -41.4341 -41.4341 -41.4341 -41.3090 -41.3090 -41.3090 -41.3090
   -41.2542 -41.2542 -41.2540 -41.2540 -41.1829 -41.1829 -41.1828 -41.1828
   -41.0964 -41.0964 -41.0962 -41.0962 -41.0883 -41.0883 -41.0881 -41.0881
   -10.8651 -10.8651 -10.7795 -10.7795  -9.5014  -9.5014  -9.4812  -9.4812
    -9.4200  -9.4200  -9.2276  -9.2276  -9.1593  -9.1593  -9.0650  -9.0650
     1.5836   1.5836   1.6523   1.6523   2.4400   2.4400   2.4851   2.4851
     3.1122   3.1122   3.5509   3.5509   3.8160   3.8160   4.0557   4.0557
     4.2585   4.2585   4.5406   4.5406   4.7673   4.7673   4.8693   4.8693
     4.9565   4.9565   5.1437   5.1437   5.3490   5.3490   5.3728   5.3728
     5.6259   5.6259   5.7576   5.7576   5.8337   5.8337   6.0404   6.0404
     6.0819   6.0819   6.1614   6.1614   6.5519   6.5519   6.6759   6.6759
    10.3038  10.3038  10.3333  10.3333  10.3990  10.3990  10.4064  10.4064
    10.6150  10.6150  10.7189  10.7189  10.8535  10.8535  10.8802  10.8802
    10.9784  10.9784  11.0105  11.0105  11.2000  11.2000  11.2943  11.2943
    11.7842  11.7842  11.9089  11.9089  12.1656  12.1656  12.1747  12.1747
    12.3296  12.3296  12.3722  12.3722  12.5547  12.5547  12.6257  12.6257
    13.9016  13.9016  14.9269  14.9269  15.6364  15.6364  16.9849  16.9849

          k =-0.4876 0.0000 0.0000 ( 15374 PWs)   bands (ev):

   -75.1152 -75.1152 -75.1150 -75.1150 -75.0410 -75.0410 -75.0388 -75.0388
   -41.4340 -41.4340 -41.4340 -41.4340 -41.3133 -41.3133 -41.3049 -41.3049
   -41.2542 -41.2542 -41.2540 -41.2540 -41.1848 -41.1848 -41.1811 -41.1811
   -41.1127 -41.1127 -41.0883 -41.0883 -41.0883 -41.0883 -41.0793 -41.0793
   -10.7679 -10.7679 -10.4943 -10.4943  -9.8632  -9.8632  -9.6425  -9.6425
    -9.3479  -9.3479  -9.1715  -9.1715  -9.1618  -9.1618  -9.1390  -9.1390
     1.4072   1.4072   1.4543   1.4543   3.0060   3.0060   3.0844   3.0844
     3.3990   3.3990   3.4157   3.4157   3.7038   3.7038   3.7744   3.7744
     3.9800   3.9800   4.0831   4.0831   4.1308   4.1308   4.6116   4.6116
     4.9729   4.9729   5.0966   5.0966   5.5490   5.5490   5.6681   5.6681
     5.8140   5.8140   5.8514   5.8514   6.0481   6.0481   6.1111   6.1111
     6.2936   6.2936   6.4445   6.4445   6.5620   6.5620   7.0737   7.0737
     9.8957   9.8957  10.1408  10.1408  10.3500  10.3500  10.4553  10.4553
    10.5789  10.5789  10.6998  10.6998  10.9941  10.9941  11.0070  11.0070
    11.0808  11.0808  11.1420  11.1420  11.1677  11.1677  11.4223  11.4223
    11.8907  11.8907  12.0059  12.0059  12.0559  12.0559  12.1684  12.1684
    12.2126  12.2126  12.4093  12.4093  12.4649  12.4649  12.6450  12.6450
    14.3851  14.3851  15.1532  15.1532  15.7852  15.7852  16.0872  16.0872

          k =-0.4876 0.0000-0.3924 ( 15436 PWs)   bands (ev):

   -75.1152 -75.1152 -75.1151 -75.1151 -75.0400 -75.0400 -75.0400 -75.0400
   -41.4341 -41.4341 -41.4341 -41.4341 -41.3091 -41.3091 -41.3090 -41.3090
   -41.2542 -41.2542 -41.2540 -41.2540 -41.1830 -41.1830 -41.1828 -41.1828
   -41.0964 -41.0964 -41.0962 -41.0962 -41.0883 -41.0883 -41.0881 -41.0881
   -10.6296 -10.6296 -10.5977 -10.5977  -9.7615  -9.7615  -9.7534  -9.7534
    -9.3389  -9.3389  -9.2712  -9.2712  -9.1376  -9.1376  -9.1288  -9.1288
     1.5397   1.5397   1.5707   1.5707   3.1215   3.1215   3.3032   3.3032
     3.4464   3.4464   3.5540   3.5540   3.5790   3.5790   3.7334   3.7334
     3.9829   3.9829   4.0326   4.0326   4.3044   4.3044   4.3402   4.3402
     4.7109   4.7109   5.0575   5.0575   5.5332   5.5332   5.5588   5.5588
     5.7857   5.7857   5.8811   5.8811   6.1517   6.1517   6.1896   6.1896
     6.2709   6.2709   6.3272   6.3272   6.4524   6.4524   6.6632   6.6632
    10.2274  10.2274  10.2457  10.2457  10.4158  10.4158  10.4403  10.4403
    10.6931  10.6931  10.7188  10.7188  10.8964  10.8964  10.8983  10.8983
    11.0349  11.0349  11.1046  11.1046  11.1531  11.1531  11.2191  11.2191
    11.7234  11.7234  11.7574  11.7574  11.9710  11.9710  12.0373  12.0373
    12.1885  12.1885  12.3251  12.3251  12.5004  12.5004  12.8079  12.8079
    15.3568  15.3568  15.5050  15.5050  16.2702  16.2702  16.2850  16.2850

     the Fermi energy is    10.5171 ev

!    total energy              =   -3488.70096670 Ry

     total all-electron energy =    -25094.006934 Ry
     estimated scf accuracy    <          1.5E-09 Ry
     smearing contrib. (-TS)   =      -0.01065974 Ry
     internal energy E=F+TS    =   -3488.69030696 Ry

     The total energy is F=E-TS. E is the sum of the following terms:
     one-electron contribution =   -1483.32417420 Ry
     hartree contribution      =     868.66536009 Ry
     xc contribution           =    -368.40377011 Ry
     ewald contribution        =   -1547.87239161 Ry
     one-center paw contrib.   =    -957.75533114 Ry

     total magnetization       =    32.00 Bohr mag/cell
     absolute magnetization    =    32.10 Bohr mag/cell

     convergence has been achieved in  17 iterations

     negative rho (up, down):  0.000E+00 3.089E-03

     Forces acting on atoms (cartesian axes, Ry/au):

     atom    1 type  1   force =     0.00000000   -0.00000000    0.00000000
     atom    2 type  1   force =    -0.00000000    0.00000000    0.00000000
     atom    3 type  1   force =     0.00000000    0.00000000    0.00000000
     atom    4 type  1   force =     0.00000000    0.00000000    0.00000000
     atom    5 type  1   force =    -0.00015549   -0.00015532    0.00000000
     atom    6 type  1   force =     0.00015549    0.00015532    0.00000000
     atom    7 type  1   force =    -0.00015549    0.00015532    0.00000000
     atom    8 type  1   force =     0.00015549   -0.00015532   -0.00000000
     atom    9 type  2   force =    -0.00001651   -0.00009977    0.00000000
     atom   10 type  2   force =     0.00001651    0.00009977    0.00000000
     atom   11 type  2   force =    -0.00001651    0.00009977    0.00000000
     atom   12 type  2   force =     0.00001651   -0.00009977    0.00000000
     atom   13 type  3   force =    -0.00012795   -0.00015605    0.00000000
     atom   14 type  3   force =     0.00012795    0.00015605    0.00000000
     atom   15 type  3   force =    -0.00012795    0.00015605    0.00000000
     atom   16 type  3   force =     0.00012795   -0.00015605    0.00000000
     atom   17 type  3   force =     0.00008882   -0.00001878   -0.00000000
     atom   18 type  3   force =    -0.00008882    0.00001878    0.00000000
     atom   19 type  3   force =     0.00008882    0.00001878    0.00000000
     atom   20 type  3   force =    -0.00008882   -0.00001878    0.00000000
     atom   21 type  3   force =    -0.00032417    0.00010486    0.00045322
     atom   22 type  3   force =     0.00032417   -0.00010486   -0.00045322
     atom   23 type  3   force =    -0.00032417   -0.00010486   -0.00045322
     atom   24 type  3   force =     0.00032417    0.00010486    0.00045322
     atom   25 type  3   force =     0.00032417   -0.00010486    0.00045322
     atom   26 type  3   force =    -0.00032417    0.00010486   -0.00045322
     atom   27 type  3   force =     0.00032417    0.00010486   -0.00045322
     atom   28 type  3   force =    -0.00032417   -0.00010486    0.00045322

     Total force =     0.001733     Total SCF correction =     0.000093


     Computing stress (Cartesian axis) and pressure


     negative rho (up, down):  0.000E+00 3.089E-03
          total   stress  (Ry/bohr**3)                   (kbar)     P=        0.06
  -0.00000138   0.00000000   0.00000000           -0.20        0.00        0.00
   0.00000000  -0.00000139   0.00000000            0.00       -0.20        0.00
   0.00000000   0.00000000   0.00000409            0.00        0.00        0.60

     Energy error            =      9.5E-06
     Gradient error          =      4.5E-04
     Cell gradient error     =      4.1E-06


     number of scf cycles    =  18
     number of bfgs steps    =  17

     enthalpy old            =   -3488.7009572306 Ry
     enthalpy new            =   -3488.7009666977 Ry

     CASE: enthalpy_new < enthalpy_old

     new trust radius        =       0.0014837132 bohr
     new conv_thr            =       0.0000000010 Ry

     new unit-cell volume =   2092.04913 a.u.^3 (   310.00970 Ang^3 )
     density =      4.36592 g/cm^3

CELL_PARAMETERS (angstrom)
   4.875111501   0.000000000   0.000000000
   0.000000000  10.496855759   0.000000000
   0.000000000   0.000000000   6.058031055

ATOMIC_POSITIONS (angstrom)
Fe            0.0000000000       -0.0000000000        0.0000000000
Fe            2.4375557505        5.2484278797        0.0000000000
Fe           -0.0000000000        0.0000000000        3.0290155275
Fe            2.4375557505        5.2484278797        3.0290155275
Fe            0.0957069368        2.9302128756        4.5435232913
Fe            4.7794045641        7.5666428837        1.5145077638
Fe            2.5332626872        2.3182150041        1.5145077638
Fe            2.3418488137        8.1786407553        4.5435232913
Si            0.3453505031        4.2320144665        1.5145077638
Si            4.5297609978        6.2648412928        4.5435232913
Si            2.7829062535        1.0164134131        4.5435232913
Si            2.0922052474        9.4804423462        1.5145077638
O             1.1449831583        0.9925043339        4.5435232913
O             3.7301283426        9.5043514254        1.5145077638
O             3.5825389087        4.2559235458        1.5145077638
O             1.2925725922        6.2409322136        4.5435232913
O             1.4471678052        0.5206052634        1.5145077638
O             3.4279436957        9.9762504960        4.5435232913
O             3.8847235556        4.7278226163        4.5435232913
O             0.9903879453        5.7690331430        1.5145077638
O             1.0485562637        3.5031766084        2.8214968750
O             3.8265552372        6.9936791510        3.2365341801
O             3.4861120141        1.7452512713        3.2365341801
O             1.3889994868        8.7516044881        2.8214968750
O             3.8265552372        6.9936791510        5.8505124025
O             1.0485562637        3.5031766084        0.2075186525
O             1.3889994868        8.7516044881        0.2075186525
O             3.4861120141        1.7452512713        5.8505124025



     Writing output data file ./out/oliv.save/
     NEW-OLD atomic charge density approx. for the potential

     Check: negative core charge=   -0.000002

     negative rho (up, down):  0.000E+00 3.091E-03
     extrapolated charge  240.02212, renormalised to  240.00000
     Generating pointlists ...

     total cpu time spent up to now is    28585.7 secs

     Self-consistent Calculation

     iteration #  1     ecut=    60.00 Ry     beta= 0.30
     Davidson diagonalization with overlap
     ethr =  1.00E-06,  avg # of iterations =  3.0

     Threshold (ethr) on eigenvalues was too large:
     Diagonalizing with lowered threshold

     Davidson diagonalization with overlap
     ethr =  1.89E-08,  avg # of iterations =  6.8

     negative rho (up, down):  0.000E+00 3.094E-03

     total cpu time spent up to now is    28730.2 secs

     total energy              =   -3488.70093528 Ry
     estimated scf accuracy    <       0.00004702 Ry

     total magnetization       =    32.00 Bohr mag/cell
     absolute magnetization    =    32.10 Bohr mag/cell

     iteration #  2     ecut=    60.00 Ry     beta= 0.30
     Davidson diagonalization with overlap
     ethr =  1.96E-08,  avg # of iterations =  4.5

     negative rho (up, down):  0.000E+00 3.093E-03

     total cpu time spent up to now is    28789.6 secs

     total energy              =   -3488.70095182 Ry
     estimated scf accuracy    <       0.00034475 Ry

     total magnetization       =    32.00 Bohr mag/cell
     absolute magnetization    =    32.10 Bohr mag/cell

     iteration #  3     ecut=    60.00 Ry     beta= 0.30
     Davidson diagonalization with overlap
     ethr =  1.96E-08,  avg # of iterations =  2.0

     negative rho (up, down):  0.000E+00 3.093E-03

     total cpu time spent up to now is    28823.6 secs

     total energy              =   -3488.70096385 Ry
     estimated scf accuracy    <       0.00029247 Ry

     total magnetization       =    32.00 Bohr mag/cell
     absolute magnetization    =    32.10 Bohr mag/cell

     iteration #  4     ecut=    60.00 Ry     beta= 0.30
     Davidson diagonalization with overlap
     ethr =  1.96E-08,  avg # of iterations =  1.9

     negative rho (up, down):  0.000E+00 3.093E-03

     total cpu time spent up to now is    28856.1 secs

     total energy              =   -3488.70097053 Ry
     estimated scf accuracy    <       0.00001333 Ry

     total magnetization       =    32.00 Bohr mag/cell
     absolute magnetization    =    32.10 Bohr mag/cell

     iteration #  5     ecut=    60.00 Ry     beta= 0.30
     Davidson diagonalization with overlap
     ethr =  5.56E-09,  avg # of iterations =  2.0

     negative rho (up, down):  0.000E+00 3.093E-03

     total cpu time spent up to now is    28891.7 secs

     total energy              =   -3488.70097064 Ry
     estimated scf accuracy    <       0.00000344 Ry

     total magnetization       =    32.00 Bohr mag/cell
     absolute magnetization    =    32.10 Bohr mag/cell

     iteration #  6     ecut=    60.00 Ry     beta= 0.30
     Davidson diagonalization with overlap
     ethr =  1.43E-09,  avg # of iterations =  4.1

     negative rho (up, down):  0.000E+00 3.093E-03

     total cpu time spent up to now is    28944.3 secs

     total energy              =   -3488.70097235 Ry
     estimated scf accuracy    <       0.00000155 Ry

     total magnetization       =    32.00 Bohr mag/cell
     absolute magnetization    =    32.10 Bohr mag/cell

     iteration #  7     ecut=    60.00 Ry     beta= 0.30
     Davidson diagonalization with overlap
     ethr =  6.47E-10,  avg # of iterations =  1.6

     negative rho (up, down):  0.000E+00 3.093E-03

     total cpu time spent up to now is    28983.2 secs

     total energy              =   -3488.70097212 Ry
     estimated scf accuracy    <       0.00000087 Ry

     total magnetization       =    32.00 Bohr mag/cell
     absolute magnetization    =    32.10 Bohr mag/cell

     iteration #  8     ecut=    60.00 Ry     beta= 0.30
     Davidson diagonalization with overlap
     ethr =  3.62E-10,  avg # of iterations =  3.6

     negative rho (up, down):  0.000E+00 3.093E-03

     total cpu time spent up to now is    29042.3 secs

     total energy              =   -3488.70097251 Ry
     estimated scf accuracy    <       0.00000058 Ry

     total magnetization       =    32.00 Bohr mag/cell
     absolute magnetization    =    32.10 Bohr mag/cell

     iteration #  9     ecut=    60.00 Ry     beta= 0.30
     Davidson diagonalization with overlap
     ethr =  2.40E-10,  avg # of iterations =  1.8

     negative rho (up, down):  0.000E+00 3.093E-03

     total cpu time spent up to now is    29082.1 secs

     total energy              =   -3488.70097239 Ry
     estimated scf accuracy    <       0.00000046 Ry

     total magnetization       =    32.00 Bohr mag/cell
     absolute magnetization    =    32.10 Bohr mag/cell

     iteration # 10     ecut=    60.00 Ry     beta= 0.30
     Davidson diagonalization with overlap
     ethr =  1.91E-10,  avg # of iterations =  2.0

     negative rho (up, down):  0.000E+00 3.093E-03

     total cpu time spent up to now is    29124.3 secs

     total energy              =   -3488.70097238 Ry
     estimated scf accuracy    <       0.00000014 Ry

     total magnetization       =    32.00 Bohr mag/cell
     absolute magnetization    =    32.10 Bohr mag/cell

     iteration # 11     ecut=    60.00 Ry     beta= 0.30
     Davidson diagonalization with overlap
     ethr =  5.91E-11,  avg # of iterations =  3.4

     negative rho (up, down):  0.000E+00 3.093E-03

     total cpu time spent up to now is    29172.5 secs

     total energy              =   -3488.70097242 Ry
     estimated scf accuracy    <          2.2E-09 Ry

     total magnetization       =    32.00 Bohr mag/cell
     absolute magnetization    =    32.10 Bohr mag/cell

     iteration # 12     ecut=    60.00 Ry     beta= 0.30
     Davidson diagonalization with overlap
     ethr =  9.29E-13,  avg # of iterations =  7.1

     negative rho (up, down):  0.000E+00 3.093E-03

     total cpu time spent up to now is    29295.9 secs

     total energy              =   -3488.70097243 Ry
     estimated scf accuracy    <       0.00000001 Ry

     total magnetization       =    32.00 Bohr mag/cell
     absolute magnetization    =    32.10 Bohr mag/cell

     iteration # 13     ecut=    60.00 Ry     beta= 0.30
     Davidson diagonalization with overlap
     ethr =  9.29E-13,  avg # of iterations =  1.0

     negative rho (up, down):  0.000E+00 3.093E-03

     total cpu time spent up to now is    29332.0 secs

     total energy              =   -3488.70097243 Ry
     estimated scf accuracy    <       0.00000001 Ry

     total magnetization       =    32.00 Bohr mag/cell
     absolute magnetization    =    32.10 Bohr mag/cell

     iteration # 14     ecut=    60.00 Ry     beta= 0.30
     Davidson diagonalization with overlap
     ethr =  9.29E-13,  avg # of iterations =  2.0

     negative rho (up, down):  0.000E+00 3.093E-03

     total cpu time spent up to now is    29371.0 secs

     total energy              =   -3488.70097243 Ry
     estimated scf accuracy    <          7.9E-09 Ry

     total magnetization       =    32.00 Bohr mag/cell
     absolute magnetization    =    32.10 Bohr mag/cell

     iteration # 15     ecut=    60.00 Ry     beta= 0.30
     Davidson diagonalization with overlap
     ethr =  9.29E-13,  avg # of iterations =  1.0

     negative rho (up, down):  0.000E+00 3.093E-03

     total cpu time spent up to now is    29410.2 secs

     total energy              =   -3488.70097243 Ry
     estimated scf accuracy    <          9.8E-09 Ry

     total magnetization       =    32.00 Bohr mag/cell
     absolute magnetization    =    32.10 Bohr mag/cell

     iteration # 16     ecut=    60.00 Ry     beta= 0.30
     Davidson diagonalization with overlap
     ethr =  9.29E-13,  avg # of iterations =  1.0

     negative rho (up, down):  0.000E+00 3.093E-03

     total cpu time spent up to now is    29450.8 secs

     total energy              =   -3488.70097243 Ry
     estimated scf accuracy    <       0.00000001 Ry

     total magnetization       =    32.00 Bohr mag/cell
     absolute magnetization    =    32.10 Bohr mag/cell

     iteration # 17     ecut=    60.00 Ry     beta= 0.30
     Davidson diagonalization with overlap
     ethr =  9.29E-13,  avg # of iterations =  2.0

     negative rho (up, down):  0.000E+00 3.093E-03

     total cpu time spent up to now is    29494.5 secs

     total energy              =   -3488.70097243 Ry
     estimated scf accuracy    <       0.00000002 Ry

     total magnetization       =    32.00 Bohr mag/cell
     absolute magnetization    =    32.10 Bohr mag/cell

     iteration # 18     ecut=    60.00 Ry     beta= 0.30
     Davidson diagonalization with overlap
     ethr =  9.29E-13,  avg # of iterations =  1.0

     negative rho (up, down):  0.000E+00 3.093E-03

     total cpu time spent up to now is    29532.9 secs

     total energy              =   -3488.70097243 Ry
     estimated scf accuracy    <       0.00000001 Ry

     total magnetization       =    32.00 Bohr mag/cell
     absolute magnetization    =    32.10 Bohr mag/cell

     iteration # 19     ecut=    60.00 Ry     beta= 0.30
     Davidson diagonalization with overlap
     ethr =  9.29E-13,  avg # of iterations =  1.4

     negative rho (up, down):  0.000E+00 3.093E-03

     total cpu time spent up to now is    29572.3 secs

     total energy              =   -3488.70097243 Ry
     estimated scf accuracy    <          9.8E-09 Ry

     total magnetization       =    32.00 Bohr mag/cell
     absolute magnetization    =    32.10 Bohr mag/cell

     iteration # 20     ecut=    60.00 Ry     beta= 0.30
     Davidson diagonalization with overlap
     ethr =  9.29E-13,  avg # of iterations =  2.0

     negative rho (up, down):  0.000E+00 3.093E-03

     total cpu time spent up to now is    29616.8 secs

     total energy              =   -3488.70097243 Ry
     estimated scf accuracy    <          5.2E-09 Ry

     total magnetization       =    32.00 Bohr mag/cell
     absolute magnetization    =    32.10 Bohr mag/cell

     iteration # 21     ecut=    60.00 Ry     beta= 0.30
     Davidson diagonalization with overlap
     ethr =  9.29E-13,  avg # of iterations =  4.8

     negative rho (up, down):  0.000E+00 3.093E-03

     Magnetic moment per site:
     atom:    1    charge:   13.3638    magn:    3.3189    constr:    0.0000
     atom:    2    charge:   13.3638    magn:    3.3189    constr:    0.0000
     atom:    3    charge:   13.3638    magn:    3.3189    constr:    0.0000
     atom:    4    charge:   13.3638    magn:    3.3189    constr:    0.0000
     atom:    5    charge:   13.3278    magn:    3.4143    constr:    0.0000
     atom:    6    charge:   13.3278    magn:    3.4143    constr:    0.0000
     atom:    7    charge:   13.3278    magn:    3.4143    constr:    0.0000
     atom:    8    charge:   13.3278    magn:    3.4143    constr:    0.0000
     atom:    9    charge:    0.3880    magn:    0.0043    constr:    0.0000
     atom:   10    charge:    0.3880    magn:    0.0043    constr:    0.0000
     atom:   11    charge:    0.3880    magn:    0.0043    constr:    0.0000
     atom:   12    charge:    0.3880    magn:    0.0043    constr:    0.0000
     atom:   13    charge:    4.0295    magn:    0.1039    constr:    0.0000
     atom:   14    charge:    4.0295    magn:    0.1039    constr:    0.0000
     atom:   15    charge:    4.0295    magn:    0.1039    constr:    0.0000
     atom:   16    charge:    4.0295    magn:    0.1039    constr:    0.0000
     atom:   17    charge:    4.0231    magn:    0.1179    constr:    0.0000
     atom:   18    charge:    4.0231    magn:    0.1179    constr:    0.0000
     atom:   19    charge:    4.0231    magn:    0.1179    constr:    0.0000
     atom:   20    charge:    4.0231    magn:    0.1179    constr:    0.0000
     atom:   21    charge:    4.0207    magn:    0.1200    constr:    0.0000
     atom:   22    charge:    4.0207    magn:    0.1200    constr:    0.0000
     atom:   23    charge:    4.0207    magn:    0.1200    constr:    0.0000
     atom:   24    charge:    4.0207    magn:    0.1200    constr:    0.0000
     atom:   25    charge:    4.0207    magn:    0.1200    constr:    0.0000
     atom:   26    charge:    4.0207    magn:    0.1200    constr:    0.0000
     atom:   27    charge:    4.0207    magn:    0.1200    constr:    0.0000
     atom:   28    charge:    4.0207    magn:    0.1200    constr:    0.0000

     total cpu time spent up to now is    29683.3 secs

     End of self-consistent calculation

 ------ SPIN UP ------------


          k = 0.0000 0.0000 0.0000 ( 15339 PWs)   bands (ev):

   -79.3397 -79.3396 -79.3396 -79.3396 -79.1206 -79.1205 -79.1186 -79.1186
   -46.0111 -46.0111 -46.0098 -46.0098 -45.6248 -45.6248 -45.6188 -45.6188
   -45.2797 -45.2797 -45.2795 -45.2795 -45.0805 -45.0804 -45.0780 -45.0780
   -44.8616 -44.8616 -44.8608 -44.8607 -44.8516 -44.8515 -44.8237 -44.8237
   -11.3631 -11.1384 -10.9080 -10.7527  -9.7610  -9.7272  -9.7184  -9.6657
    -9.6449  -9.5320  -9.4861  -9.4661  -9.4505  -9.4017  -9.3793  -9.3160
     1.0463   1.0709   1.5488   1.5664   1.6436   1.7099   2.3197   2.3222
     2.3250   2.8183   2.9372   2.9966   3.1170   3.5811   3.7270   3.7852
     4.0005   4.0603   4.0671   4.1284   4.2616   4.3535   4.3674   4.4234
     4.4321   4.5227   4.5362   4.5367   4.6197   4.6819   4.7274   4.7622
     4.8321   4.9461   4.9693   4.9934   5.1724   5.2062   5.3298   5.3575
     5.3896   5.6629   5.9813   6.0008   6.0201   6.1795   6.1803   6.3573
     6.7549   6.9949   7.0290   7.0445   7.1023   7.1417   7.1734   7.3114
     7.3614   7.3842   7.3917   7.5145   7.5324   7.5636   7.8188   7.8351
     7.8575   7.9821   8.0018   8.0379   8.0621   8.0738   8.0932   8.2020
     8.3301   8.3355   8.3421   8.3976   8.6009   8.7284   8.8773   8.9283
     8.9600   9.0239   9.2092   9.2467   9.2852   9.4106   9.4295   9.6106
    11.3629  13.3458  13.9158  15.2374  15.7767  16.2612  16.3236  16.3587

          k = 0.0000 0.0000-0.3924 ( 15392 PWs)   bands (ev):

   -79.3397 -79.3397 -79.3397 -79.3397 -79.1196 -79.1196 -79.1196 -79.1196
   -46.0106 -46.0106 -46.0106 -46.0106 -45.6218 -45.6218 -45.6218 -45.6218
   -45.2796 -45.2796 -45.2796 -45.2796 -45.0792 -45.0792 -45.0792 -45.0792
   -44.8612 -44.8612 -44.8612 -44.8612 -44.8377 -44.8377 -44.8377 -44.8377
   -11.0800 -11.0800 -10.9923 -10.9923  -9.7374  -9.7374  -9.7073  -9.7073
    -9.6605  -9.6605  -9.4757  -9.4757  -9.4121  -9.4121  -9.3177  -9.3177
     1.3254   1.3254   1.4046   1.4046   2.0655   2.0655   2.1356   2.1356
     2.7446   2.7446   3.2144   3.2144   3.4419   3.4419   3.6928   3.6928
     3.7419   3.7419   3.9794   3.9794   4.1475   4.1475   4.3549   4.3549
     4.4160   4.4160   4.5019   4.5019   4.7084   4.7084   4.7490   4.7490
     4.8399   4.8399   5.0412   5.0412   5.1136   5.1136   5.4600   5.4600
     5.6191   5.6191   5.6751   5.6751   5.8046   5.8046   5.9198   5.9198
     7.0502   7.0502   7.0539   7.0539   7.1889   7.1889   7.1971   7.1971
     7.4868   7.4868   7.5322   7.5322   7.5972   7.5972   7.7468   7.7468
     8.0108   8.0108   8.0323   8.0323   8.0931   8.0931   8.1422   8.1422
     8.4142   8.4142   8.5158   8.5158   8.7294   8.7294   8.7500   8.7500
     8.8780   8.8780   8.8985   8.8985   9.1908   9.1908   9.4439   9.4439
    13.2835  13.2835  14.4108  14.4108  15.1252  15.1252  16.6293  16.6293

          k =-0.4876 0.0000 0.0000 ( 15374 PWs)   bands (ev):

   -79.3397 -79.3397 -79.3396 -79.3396 -79.1206 -79.1206 -79.1186 -79.1186
   -46.0105 -46.0105 -46.0105 -46.0105 -45.6248 -45.6248 -45.6188 -45.6188
   -45.2796 -45.2796 -45.2795 -45.2795 -45.0804 -45.0804 -45.0780 -45.0780
   -44.8612 -44.8612 -44.8612 -44.8612 -44.8515 -44.8515 -44.8237 -44.8237
   -10.9805 -10.9805 -10.7143 -10.7143 -10.0886 -10.0886  -9.8661  -9.8661
    -9.5970  -9.5970  -9.4261  -9.4261  -9.4125  -9.4125  -9.3840  -9.3840
     1.1121   1.1121   1.2164   1.2164   2.6727   2.6727   2.7676   2.7676
     2.9844   2.9844   3.0163   3.0163   3.2779   3.2779   3.3366   3.3366
     3.5580   3.5580   3.5772   3.5772   3.7420   3.7420   4.2494   4.2494
     4.3588   4.3588   4.4254   4.4254   4.8360   4.8360   4.9049   4.9049
     4.9757   4.9757   5.1023   5.1023   5.2423   5.2423   5.5442   5.5442
     5.6292   5.6292   5.8011   5.8011   6.0044   6.0044   6.6758   6.6758
     6.9923   6.9923   7.0491   7.0491   7.1321   7.1321   7.2242   7.2242
     7.2845   7.2845   7.3231   7.3231   7.4760   7.4760   7.7559   7.7559
     7.8335   7.8335   8.0442   8.0442   8.1346   8.1346   8.1957   8.1957
     8.5126   8.5126   8.7269   8.7269   8.7388   8.7388   8.8428   8.8428
     8.9458   8.9458   9.0060   9.0060   9.1725   9.1725   9.3754   9.3754
    13.9360  13.9360  14.8082  14.8082  15.2061  15.2061  15.4948  15.4948

          k =-0.4876 0.0000-0.3924 ( 15436 PWs)   bands (ev):

   -79.3397 -79.3397 -79.3397 -79.3397 -79.1196 -79.1196 -79.1196 -79.1196
   -46.0106 -46.0106 -46.0106 -46.0106 -45.6218 -45.6218 -45.6218 -45.6218
   -45.2796 -45.2796 -45.2795 -45.2795 -45.0792 -45.0792 -45.0792 -45.0792
   -44.8612 -44.8612 -44.8612 -44.8612 -44.8377 -44.8377 -44.8377 -44.8377
   -10.8451 -10.8451 -10.8134 -10.8134  -9.9855  -9.9855  -9.9800  -9.9800
    -9.5879  -9.5879  -9.5205  -9.5205  -9.3899  -9.3899  -9.3771  -9.3771
     1.2722   1.2722   1.2761   1.2761   2.7257   2.7257   2.8941   2.8941
     3.0629   3.0629   3.1519   3.1519   3.1736   3.1736   3.3839   3.3839
     3.5195   3.5195   3.6301   3.6301   3.7388   3.7388   3.8474   3.8474
     4.2840   4.2840   4.5692   4.5692   4.9969   4.9969   5.0714   5.0714
     5.1540   5.1540   5.2483   5.2483   5.2620   5.2620   5.3058   5.3058
     5.5063   5.5063   5.5973   5.5973   5.8831   5.8831   6.0415   6.0415
     7.0281   7.0281   7.1296   7.1296   7.2644   7.2644   7.2746   7.2746
     7.3151   7.3151   7.4449   7.4449   7.6808   7.6808   7.7007   7.7007
     7.7809   7.7809   7.9199   7.9199   7.9832   7.9832   8.0871   8.0871
     8.4257   8.4257   8.4278   8.4278   8.4405   8.4405   8.8066   8.8066
     8.9758   8.9758   9.0356   9.0356   9.1625   9.1625   9.5745   9.5745
    14.9106  14.9106  14.9813  14.9813  15.7669  15.7943  15.7966  15.8453

 ------ SPIN DOWN ----------


          k = 0.0000 0.0000 0.0000 ( 15339 PWs)   bands (ev):

   -75.1158 -75.1158 -75.1157 -75.1155 -75.0422 -75.0420 -75.0400 -75.0400
   -41.4358 -41.4357 -41.4337 -41.4337 -41.3145 -41.3145 -41.3062 -41.3062
   -41.2554 -41.2551 -41.2546 -41.2545 -41.1862 -41.1858 -41.1824 -41.1823
   -41.1137 -41.1136 -41.0893 -41.0892 -41.0883 -41.0882 -41.0803 -41.0802
   -11.1476 -10.9264 -10.6946 -10.5422  -9.5411  -9.4989  -9.4875  -9.4358
    -9.4065  -9.2825  -9.2422  -9.2194  -9.1961  -9.1506  -9.1237  -9.0632
     1.3134   1.3242   1.7635   1.8481   1.9083   2.0741   2.6661   2.6825
     2.7568   3.2083   3.2799   3.3468   3.5070   4.0210   4.0485   4.0891
     4.4365   4.6028   4.7605   4.8131   4.8204   4.9302   4.9459   4.9487
     4.9888   5.0990   5.1459   5.1488   5.3522   5.3694   5.4722   5.4999
     5.5491   5.5746   5.6784   5.7052   5.7808   5.7966   5.8530   5.9607
     6.2049   6.3515   6.4331   6.4583   6.6416   6.6689   6.7255   6.9056
     9.8578   9.9076  10.2196  10.2259  10.3324  10.3636  10.4146  10.4320
    10.4413  10.5486  10.6239  10.8489  10.9278  10.9521  10.9668  10.9733
    11.0011  11.0638  11.0817  11.1867  11.1887  11.1939  11.3619  11.3715
    11.8561  11.8945  11.9246  11.9856  11.9879  12.1582  12.1992  12.2745
    12.3073  12.3130  12.3470  12.4314  12.4532  12.4699  12.5335  12.7748
    12.7806  13.9276  14.4254  15.6719  16.1347  16.7156  16.7438  16.7782

          k = 0.0000 0.0000-0.3924 ( 15392 PWs)   bands (ev):

   -75.1158 -75.1158 -75.1157 -75.1157 -75.0411 -75.0411 -75.0411 -75.0411
   -41.4348 -41.4348 -41.4348 -41.4348 -41.3103 -41.3103 -41.3103 -41.3103
   -41.2550 -41.2550 -41.2548 -41.2548 -41.1842 -41.1842 -41.1840 -41.1840
   -41.0974 -41.0974 -41.0972 -41.0972 -41.0888 -41.0888 -41.0886 -41.0886
   -10.8661 -10.8661 -10.7806 -10.7806  -9.5025  -9.5025  -9.4826  -9.4826
    -9.4208  -9.4208  -9.2282  -9.2282  -9.1602  -9.1602  -9.0658  -9.0658
     1.5827   1.5827   1.6508   1.6508   2.4389   2.4389   2.4842   2.4842
     3.1110   3.1110   3.5492   3.5492   3.8151   3.8151   4.0543   4.0543
     4.2578   4.2578   4.5398   4.5398   4.7673   4.7673   4.8669   4.8669
     4.9548   4.9548   5.1420   5.1420   5.3481   5.3481   5.3713   5.3713
     5.6251   5.6251   5.7557   5.7557   5.8322   5.8322   6.0397   6.0397
     6.0815   6.0815   6.1606   6.1606   6.5520   6.5520   6.6755   6.6755
    10.3030  10.3030  10.3321  10.3321  10.3976  10.3976  10.4053  10.4053
    10.6146  10.6146  10.7186  10.7186  10.8526  10.8526  10.8795  10.8795
    10.9775  10.9775  11.0096  11.0096  11.1993  11.1993  11.2936  11.2936
    11.7827  11.7827  11.9074  11.9074  12.1652  12.1652  12.1737  12.1737
    12.3291  12.3291  12.3711  12.3711  12.5536  12.5536  12.6240  12.6240
    13.9006  13.9006  14.9254  14.9254  15.6337  15.6337  16.9845  16.9845

          k =-0.4876 0.0000 0.0000 ( 15374 PWs)   bands (ev):

   -75.1158 -75.1158 -75.1157 -75.1157 -75.0422 -75.0422 -75.0400 -75.0400
   -41.4348 -41.4348 -41.4347 -41.4347 -41.3146 -41.3146 -41.3062 -41.3062
   -41.2550 -41.2550 -41.2547 -41.2547 -41.1860 -41.1860 -41.1823 -41.1823
   -41.1137 -41.1137 -41.0888 -41.0888 -41.0888 -41.0888 -41.0803 -41.0803
   -10.7687 -10.7687 -10.4950 -10.4950  -9.8649  -9.8649  -9.6439  -9.6439
    -9.3481  -9.3481  -9.1729  -9.1729  -9.1634  -9.1634  -9.1389  -9.1389
     1.4059   1.4059   1.4530   1.4530   3.0053   3.0053   3.0835   3.0835
     3.3983   3.3983   3.4150   3.4150   3.7023   3.7023   3.7735   3.7735
     3.9795   3.9795   4.0810   4.0810   4.1301   4.1301   4.6105   4.6105
     4.9726   4.9726   5.0939   5.0939   5.5466   5.5466   5.6686   5.6686
     5.8130   5.8130   5.8487   5.8487   6.0468   6.0468   6.1114   6.1114
     6.2926   6.2926   6.4443   6.4443   6.5604   6.5604   7.0727   7.0727
     9.8951   9.8951  10.1409  10.1409  10.3489  10.3489  10.4540  10.4540
    10.5776  10.5776  10.6991  10.6991  10.9934  10.9934  11.0064  11.0064
    11.0801  11.0801  11.1410  11.1410  11.1671  11.1671  11.4207  11.4207
    11.8896  11.8896  12.0046  12.0046  12.0545  12.0545  12.1673  12.1673
    12.2123  12.2123  12.4079  12.4079  12.4641  12.4641  12.6441  12.6441
    14.3830  14.3830  15.1508  15.1508  15.7852  15.7852  16.0847  16.0847

          k =-0.4876 0.0000-0.3924 ( 15436 PWs)   bands (ev):

   -75.1158 -75.1158 -75.1158 -75.1158 -75.0412 -75.0412 -75.0412 -75.0412
   -41.4348 -41.4348 -41.4348 -41.4348 -41.3103 -41.3103 -41.3102 -41.3102
   -41.2550 -41.2550 -41.2547 -41.2547 -41.1842 -41.1842 -41.1840 -41.1840
   -41.0974 -41.0974 -41.0972 -41.0972 -41.0888 -41.0888 -41.0886 -41.0886
   -10.6304 -10.6304 -10.5986 -10.5986  -9.7632  -9.7632  -9.7550  -9.7550
    -9.3393  -9.3393  -9.2720  -9.2720  -9.1383  -9.1383  -9.1298  -9.1298
     1.5386   1.5386   1.5694   1.5694   3.1199   3.1199   3.3021   3.3021
     3.4453   3.4453   3.5537   3.5537   3.5774   3.5774   3.7325   3.7325
     3.9820   3.9820   4.0315   4.0315   4.3036   4.3036   4.3388   4.3388
     4.7096   4.7096   5.0559   5.0559   5.5313   5.5313   5.5576   5.5576
     5.7844   5.7844   5.8805   5.8805   6.1511   6.1511   6.1880   6.1880
     6.2702   6.2702   6.3270   6.3270   6.4523   6.4523   6.6624   6.6624
    10.2266  10.2266  10.2447  10.2447  10.4146  10.4146  10.4392  10.4392
    10.6926  10.6926  10.7181  10.7181  10.8960  10.8960  10.8975  10.8975
    11.0342  11.0342  11.1036  11.1036  11.1525  11.1525  11.2182  11.2182
    11.7222  11.7222  11.7562  11.7562  11.9703  11.9703  12.0366  12.0366
    12.1877  12.1877  12.3243  12.3243  12.4987  12.4987  12.8065  12.8065
    15.3531  15.3531  15.5034  15.5034  16.2705  16.2705  16.2865  16.2865

     the Fermi energy is    10.5160 ev

!    total energy              =   -3488.70097243 Ry

     total all-electron energy =    -25094.006940 Ry
     estimated scf accuracy    <          1.2E-10 Ry
     smearing contrib. (-TS)   =      -0.01064435 Ry
     internal energy E=F+TS    =   -3488.69032808 Ry

     The total energy is F=E-TS. E is the sum of the following terms:
     one-electron contribution =   -1483.43840930 Ry
     hartree contribution      =     868.71299564 Ry
     xc contribution           =    -368.40318854 Ry
     ewald contribution        =   -1547.80643338 Ry
     one-center paw contrib.   =    -957.75529251 Ry

     total magnetization       =    32.00 Bohr mag/cell
     absolute magnetization    =    32.10 Bohr mag/cell

     convergence has been achieved in  21 iterations

     negative rho (up, down):  0.000E+00 3.093E-03

     Forces acting on atoms (cartesian axes, Ry/au):

     atom    1 type  1   force =     0.00000000    0.00000000   -0.00000000
     atom    2 type  1   force =    -0.00000000    0.00000000    0.00000000
     atom    3 type  1   force =     0.00000000   -0.00000000    0.00000000
     atom    4 type  1   force =     0.00000000    0.00000000    0.00000000
     atom    5 type  1   force =    -0.00019513   -0.00020116   -0.00000000
     atom    6 type  1   force =     0.00019513    0.00020116    0.00000000
     atom    7 type  1   force =    -0.00019513    0.00020116    0.00000000
     atom    8 type  1   force =     0.00019513   -0.00020116    0.00000000
     atom    9 type  2   force =     0.00012852    0.00001566   -0.00000000
     atom   10 type  2   force =    -0.00012852   -0.00001566   -0.00000000
     atom   11 type  2   force =     0.00012852   -0.00001566    0.00000000
     atom   12 type  2   force =    -0.00012852    0.00001566    0.00000000
     atom   13 type  3   force =    -0.00005150   -0.00000691    0.00000000
     atom   14 type  3   force =     0.00005150    0.00000691   -0.00000000
     atom   15 type  3   force =    -0.00005150    0.00000691    0.00000000
     atom   16 type  3   force =     0.00005150   -0.00000691    0.00000000
     atom   17 type  3   force =     0.00016586    0.00016117   -0.00000000
     atom   18 type  3   force =    -0.00016586   -0.00016117   -0.00000000
     atom   19 type  3   force =     0.00016586   -0.00016117    0.00000000
     atom   20 type  3   force =    -0.00016586    0.00016117    0.00000000
     atom   21 type  3   force =    -0.00032363   -0.00001152    0.00021807
     atom   22 type  3   force =     0.00032363    0.00001152   -0.00021807
     atom   23 type  3   force =    -0.00032363    0.00001152   -0.00021807
     atom   24 type  3   force =     0.00032363   -0.00001152    0.00021807
     atom   25 type  3   force =     0.00032363    0.00001152    0.00021807
     atom   26 type  3   force =    -0.00032363   -0.00001152   -0.00021807
     atom   27 type  3   force =     0.00032363   -0.00001152   -0.00021807
     atom   28 type  3   force =    -0.00032363    0.00001152    0.00021807

     Total force =     0.001351     Total SCF correction =     0.000023


     Computing stress (Cartesian axis) and pressure


     negative rho (up, down):  0.000E+00 3.093E-03
          total   stress  (Ry/bohr**3)                   (kbar)     P=       -0.04
  -0.00000182   0.00000000   0.00000000           -0.27        0.00        0.00
   0.00000000  -0.00000119   0.00000000            0.00       -0.17        0.00
   0.00000000   0.00000000   0.00000221            0.00        0.00        0.32

     Energy error            =      5.7E-06
     Gradient error          =      3.2E-04
     Cell gradient error     =      2.2E-06


     number of scf cycles    =  19
     number of bfgs steps    =  18

     enthalpy old            =   -3488.7009666977 Ry
     enthalpy new            =   -3488.7009724266 Ry

     CASE: enthalpy_new < enthalpy_old

     new trust radius        =       0.0014788497 bohr
     new conv_thr            =       0.0000000010 Ry

     new unit-cell volume =   2092.01795 a.u.^3 (   310.00508 Ang^3 )
     density =      4.36599 g/cm^3

CELL_PARAMETERS (angstrom)
   4.874594639   0.000000000   0.000000000
   0.000000000  10.496529769   0.000000000
   0.000000000   0.000000000   6.058771256

ATOMIC_POSITIONS (angstrom)
Fe            0.0000000000       -0.0000000000        0.0000000000
Fe            2.4372973194        5.2482648845        0.0000000000
Fe           -0.0000000000        0.0000000000        3.0293856282
Fe            2.4372973194        5.2482648845        3.0293856282
Fe            0.0953095631        2.9302056086        4.5440784423
Fe            4.7792850758        7.5663241604        1.5146928141
Fe            2.5326068826        2.3180592759        1.5146928141
Fe            2.3419877563        8.1784704932        4.5440784423
Si            0.3451131189        4.2316733372        1.5146928141
Si            4.5294815200        6.2648564319        4.5440784423
Si            2.7824104383        1.0165915474        4.5440784423
Si            2.0921842006        9.4799382217        1.5146928141
O             1.1444847064        0.9922286311        4.5440784423
O             3.7301099325        9.5043011380        1.5146928141
O             3.5817820258        4.2560362534        1.5146928141
O             1.2928126131        6.2404935156        4.5440784423
O             1.4469407979        0.5203243232        1.5146928141
O             3.4276538410        9.9762054459        4.5440784423
O             3.8842381173        4.7279405614        4.5440784423
O             0.9903565216        5.7685892077        1.5146928141
O             1.0477863918        3.5032499461        2.8222228030
O             3.8268082471        6.9932798229        3.2365484534
O             3.4850837112        1.7450149384        3.2365484534
O             1.3895109276        8.7515148306        2.8222228030
O             3.8268082471        6.9932798229        5.8516084312
O             1.0477863918        3.5032499461        0.2071628252
O             1.3895109276        8.7515148306        0.2071628252
O             3.4850837112        1.7450149384        5.8516084312



     Writing output data file ./out/oliv.save/
     NEW-OLD atomic charge density approx. for the potential

     Check: negative core charge=   -0.000002

     negative rho (up, down):  0.000E+00 3.099E-03
     extrapolated charge  239.99642, renormalised to  240.00000
     Generating pointlists ...

     total cpu time spent up to now is    29730.6 secs

     Self-consistent Calculation

     iteration #  1     ecut=    60.00 Ry     beta= 0.30
     Davidson diagonalization with overlap
     ethr =  1.00E-06,  avg # of iterations =  3.1

     Threshold (ethr) on eigenvalues was too large:
     Diagonalizing with lowered threshold

     Davidson diagonalization with overlap
     ethr =  2.84E-09,  avg # of iterations =  8.4

     negative rho (up, down):  0.000E+00 3.099E-03

     total cpu time spent up to now is    29879.9 secs

     total energy              =   -3488.70097410 Ry
     estimated scf accuracy    <       0.00000482 Ry

     total magnetization       =    32.00 Bohr mag/cell
     absolute magnetization    =    32.10 Bohr mag/cell

     iteration #  2     ecut=    60.00 Ry     beta= 0.30
     Davidson diagonalization with overlap
     ethr =  2.01E-09,  avg # of iterations =  4.1

     negative rho (up, down):  0.000E+00 3.099E-03

     total cpu time spent up to now is    29927.9 secs

     total energy              =   -3488.70097375 Ry
     estimated scf accuracy    <       0.00003801 Ry

     total magnetization       =    32.00 Bohr mag/cell
     absolute magnetization    =    32.10 Bohr mag/cell

     iteration #  3     ecut=    60.00 Ry     beta= 0.30
     Davidson diagonalization with overlap
     ethr =  2.01E-09,  avg # of iterations =  1.8

     negative rho (up, down):  0.000E+00 3.100E-03

     total cpu time spent up to now is    29968.2 secs

     total energy              =   -3488.70097517 Ry
     estimated scf accuracy    <       0.00000779 Ry

     total magnetization       =    32.00 Bohr mag/cell
     absolute magnetization    =    32.10 Bohr mag/cell

     iteration #  4     ecut=    60.00 Ry     beta= 0.30
     Davidson diagonalization with overlap
     ethr =  2.01E-09,  avg # of iterations =  1.4

     negative rho (up, down):  0.000E+00 3.100E-03

     total cpu time spent up to now is    30004.3 secs

     total energy              =   -3488.70097570 Ry
     estimated scf accuracy    <       0.00000081 Ry

     total magnetization       =    32.00 Bohr mag/cell
     absolute magnetization    =    32.10 Bohr mag/cell

     iteration #  5     ecut=    60.00 Ry     beta= 0.30
     Davidson diagonalization with overlap
     ethr =  3.36E-10,  avg # of iterations =  2.6

     negative rho (up, down):  0.000E+00 3.101E-03

     total cpu time spent up to now is    30053.0 secs

     total energy              =   -3488.70097599 Ry
     estimated scf accuracy    <       0.00000021 Ry

     total magnetization       =    32.00 Bohr mag/cell
     absolute magnetization    =    32.10 Bohr mag/cell

     iteration #  6     ecut=    60.00 Ry     beta= 0.30
     Davidson diagonalization with overlap
     ethr =  8.59E-11,  avg # of iterations =  3.6

     negative rho (up, down):  0.000E+00 3.101E-03

     total cpu time spent up to now is    30106.8 secs

     total energy              =   -3488.70097609 Ry
     estimated scf accuracy    <       0.00000007 Ry

     total magnetization       =    32.00 Bohr mag/cell
     absolute magnetization    =    32.10 Bohr mag/cell

     iteration #  7     ecut=    60.00 Ry     beta= 0.30
     Davidson diagonalization with overlap
     ethr =  2.72E-11,  avg # of iterations =  3.8

     negative rho (up, down):  0.000E+00 3.101E-03

     total cpu time spent up to now is    30162.1 secs

     total energy              =   -3488.70097611 Ry
     estimated scf accuracy    <       0.00000015 Ry

     total magnetization       =    32.00 Bohr mag/cell
     absolute magnetization    =    32.10 Bohr mag/cell

     iteration #  8     ecut=    60.00 Ry     beta= 0.30
     Davidson diagonalization with overlap
     ethr =  2.72E-11,  avg # of iterations =  2.0

     negative rho (up, down):  0.000E+00 3.101E-03

     total cpu time spent up to now is    30199.4 secs

     total energy              =   -3488.70097611 Ry
     estimated scf accuracy    <       0.00000002 Ry

     total magnetization       =    32.00 Bohr mag/cell
     absolute magnetization    =    32.10 Bohr mag/cell

     iteration #  9     ecut=    60.00 Ry     beta= 0.30
     Davidson diagonalization with overlap
     ethr =  6.58E-12,  avg # of iterations =  5.2

     negative rho (up, down):  0.000E+00 3.101E-03

     total cpu time spent up to now is    30250.5 secs

     total energy              =   -3488.70097611 Ry
     estimated scf accuracy    <          9.4E-09 Ry

     total magnetization       =    32.00 Bohr mag/cell
     absolute magnetization    =    32.10 Bohr mag/cell

     iteration # 10     ecut=    60.00 Ry     beta= 0.30
     Davidson diagonalization with overlap
     ethr =  3.92E-12,  avg # of iterations =  2.6

     negative rho (up, down):  0.000E+00 3.101E-03

     Magnetic moment per site:
     atom:    1    charge:   13.3638    magn:    3.3190    constr:    0.0000
     atom:    2    charge:   13.3638    magn:    3.3190    constr:    0.0000
     atom:    3    charge:   13.3638    magn:    3.3190    constr:    0.0000
     atom:    4    charge:   13.3638    magn:    3.3190    constr:    0.0000
     atom:    5    charge:   13.3279    magn:    3.4141    constr:    0.0000
     atom:    6    charge:   13.3279    magn:    3.4141    constr:    0.0000
     atom:    7    charge:   13.3279    magn:    3.4141    constr:    0.0000
     atom:    8    charge:   13.3279    magn:    3.4141    constr:    0.0000
     atom:    9    charge:    0.3879    magn:    0.0043    constr:    0.0000
     atom:   10    charge:    0.3879    magn:    0.0043    constr:    0.0000
     atom:   11    charge:    0.3879    magn:    0.0043    constr:    0.0000
     atom:   12    charge:    0.3879    magn:    0.0043    constr:    0.0000
     atom:   13    charge:    4.0295    magn:    0.1039    constr:    0.0000
     atom:   14    charge:    4.0295    magn:    0.1039    constr:    0.0000
     atom:   15    charge:    4.0295    magn:    0.1039    constr:    0.0000
     atom:   16    charge:    4.0295    magn:    0.1039    constr:    0.0000
     atom:   17    charge:    4.0232    magn:    0.1180    constr:    0.0000
     atom:   18    charge:    4.0232    magn:    0.1180    constr:    0.0000
     atom:   19    charge:    4.0232    magn:    0.1180    constr:    0.0000
     atom:   20    charge:    4.0232    magn:    0.1180    constr:    0.0000
     atom:   21    charge:    4.0207    magn:    0.1200    constr:    0.0000
     atom:   22    charge:    4.0207    magn:    0.1200    constr:    0.0000
     atom:   23    charge:    4.0207    magn:    0.1200    constr:    0.0000
     atom:   24    charge:    4.0207    magn:    0.1200    constr:    0.0000
     atom:   25    charge:    4.0207    magn:    0.1200    constr:    0.0000
     atom:   26    charge:    4.0207    magn:    0.1200    constr:    0.0000
     atom:   27    charge:    4.0207    magn:    0.1200    constr:    0.0000
     atom:   28    charge:    4.0207    magn:    0.1200    constr:    0.0000

     total cpu time spent up to now is    30293.0 secs

     End of self-consistent calculation

 ------ SPIN UP ------------


          k = 0.0000 0.0000 0.0000 ( 15339 PWs)   bands (ev):

   -79.3390 -79.3390 -79.3390 -79.3389 -79.1204 -79.1203 -79.1185 -79.1184
   -46.0105 -46.0105 -46.0093 -46.0092 -45.6248 -45.6247 -45.6188 -45.6188
   -45.2792 -45.2792 -45.2790 -45.2790 -45.0801 -45.0800 -45.0777 -45.0776
   -44.8607 -44.8607 -44.8600 -44.8599 -44.8514 -44.8513 -44.8235 -44.8235
   -11.3630 -11.1384 -10.9077 -10.7525  -9.7606  -9.7267  -9.7183  -9.6655
    -9.6446  -9.5327  -9.4855  -9.4668  -9.4497  -9.4007  -9.3799  -9.3166
     1.0465   1.0712   1.5489   1.5652   1.6435   1.7098   2.3197   2.3224
     2.3245   2.8183   2.9369   2.9972   3.1174   3.5805   3.7277   3.7840
     3.9994   4.0614   4.0682   4.1295   4.2618   4.3534   4.3663   4.4243
     4.4316   4.5214   4.5362   4.5364   4.6199   4.6816   4.7277   4.7626
     4.8309   4.9459   4.9691   4.9948   5.1728   5.2070   5.3296   5.3575
     5.3909   5.6625   5.9811   6.0021   6.0190   6.1789   6.1808   6.3572
     6.7549   6.9956   7.0295   7.0450   7.1028   7.1421   7.1740   7.3119
     7.3614   7.3848   7.3923   7.5155   7.5332   7.5641   7.8194   7.8350
     7.8570   7.9827   8.0015   8.0384   8.0628   8.0747   8.0933   8.2028
     8.3304   8.3356   8.3425   8.3982   8.6011   8.7290   8.8776   8.9287
     8.9609   9.0248   9.2103   9.2462   9.2864   9.4099   9.4304   9.6113
    11.3636  13.3476  13.9149  15.2395  15.7788  16.2615  16.3236  16.3624

          k = 0.0000 0.0000-0.3923 ( 15392 PWs)   bands (ev):

   -79.3390 -79.3390 -79.3390 -79.3390 -79.1194 -79.1194 -79.1194 -79.1194
   -46.0100 -46.0100 -46.0100 -46.0100 -45.6218 -45.6218 -45.6218 -45.6218
   -45.2791 -45.2791 -45.2791 -45.2791 -45.0789 -45.0789 -45.0789 -45.0789
   -44.8603 -44.8603 -44.8603 -44.8603 -44.8375 -44.8375 -44.8375 -44.8375
   -11.0798 -11.0798 -10.9921 -10.9921  -9.7372  -9.7372  -9.7071  -9.7071
    -9.6604  -9.6604  -9.4756  -9.4756  -9.4121  -9.4121  -9.3176  -9.3176
     1.3257   1.3257   1.4048   1.4048   2.0648   2.0648   2.1354   2.1354
     2.7443   2.7443   3.2137   3.2137   3.4419   3.4419   3.6921   3.6921
     3.7419   3.7419   3.9795   3.9795   4.1482   4.1482   4.3549   4.3549
     4.4157   4.4157   4.5018   4.5018   4.7082   4.7082   4.7490   4.7490
     4.8398   4.8398   5.0409   5.0409   5.1141   5.1141   5.4604   5.4604
     5.6197   5.6197   5.6758   5.6758   5.8052   5.8052   5.9203   5.9203
     7.0508   7.0508   7.0544   7.0544   7.1892   7.1892   7.1976   7.1976
     7.4873   7.4873   7.5328   7.5328   7.5976   7.5976   7.7471   7.7471
     8.0114   8.0114   8.0328   8.0328   8.0936   8.0936   8.1426   8.1426
     8.4144   8.4144   8.5159   8.5159   8.7296   8.7296   8.7509   8.7509
     8.8790   8.8790   8.8986   8.8986   9.1915   9.1915   9.4444   9.4444
    13.2842  13.2842  14.4117  14.4117  15.1252  15.1252  16.6318  16.6319

          k =-0.4877 0.0000 0.0000 ( 15374 PWs)   bands (ev):

   -79.3390 -79.3390 -79.3390 -79.3390 -79.1204 -79.1204 -79.1184 -79.1184
   -46.0099 -46.0099 -46.0099 -46.0099 -45.6248 -45.6248 -45.6188 -45.6188
   -45.2791 -45.2791 -45.2791 -45.2791 -45.0801 -45.0801 -45.0777 -45.0777
   -44.8604 -44.8604 -44.8603 -44.8603 -44.8513 -44.8513 -44.8235 -44.8235
   -10.9802 -10.9802 -10.7139 -10.7139 -10.0886 -10.0886  -9.8659  -9.8659
    -9.5965  -9.5965  -9.4267  -9.4267  -9.4132  -9.4132  -9.3832  -9.3832
     1.1115   1.1115   1.2157   1.2157   2.6729   2.6729   2.7679   2.7679
     2.9853   2.9853   3.0163   3.0163   3.2778   3.2778   3.3368   3.3368
     3.5584   3.5584   3.5762   3.5762   3.7426   3.7426   4.2506   4.2506
     4.3590   4.3590   4.4236   4.4236   4.8350   4.8350   4.9053   4.9053
     4.9750   4.9750   5.1022   5.1022   5.2434   5.2434   5.5454   5.5454
     5.6291   5.6291   5.8017   5.8017   6.0047   6.0047   6.6757   6.6757
     6.9926   6.9926   7.0498   7.0498   7.1329   7.1329   7.2247   7.2247
     7.2851   7.2851   7.3238   7.3238   7.4762   7.4762   7.7566   7.7566
     7.8331   7.8331   8.0448   8.0448   8.1345   8.1345   8.1965   8.1965
     8.5131   8.5131   8.7275   8.7275   8.7385   8.7385   8.8424   8.8424
     8.9464   8.9464   9.0070   9.0070   9.1730   9.1730   9.3761   9.3761
    13.9362  13.9362  14.8077  14.8077  15.2087  15.2087  15.4937  15.4937

          k =-0.4877 0.0000-0.3923 ( 15436 PWs)   bands (ev):

   -79.3391 -79.3391 -79.3390 -79.3390 -79.1194 -79.1194 -79.1194 -79.1194
   -46.0100 -46.0100 -46.0100 -46.0100 -45.6218 -45.6218 -45.6218 -45.6218
   -45.2791 -45.2791 -45.2791 -45.2791 -45.0789 -45.0789 -45.0788 -45.0788
   -44.8603 -44.8603 -44.8603 -44.8603 -44.8375 -44.8375 -44.8375 -44.8375
   -10.8448 -10.8448 -10.8131 -10.8131  -9.9855  -9.9855  -9.9799  -9.9799
    -9.5876  -9.5876  -9.5206  -9.5206  -9.3897  -9.3897  -9.3773  -9.3773
     1.2715   1.2715   1.2758   1.2758   2.7257   2.7257   2.8943   2.8943
     3.0628   3.0628   3.1519   3.1519   3.1732   3.1732   3.3839   3.3839
     3.5196   3.5196   3.6299   3.6299   3.7390   3.7390   3.8476   3.8476
     4.2837   4.2837   4.5690   4.5690   4.9966   4.9966   5.0715   5.0715
     5.1552   5.1552   5.2481   5.2481   5.2615   5.2615   5.3059   5.3059
     5.5069   5.5069   5.5980   5.5980   5.8836   5.8836   6.0419   6.0419
     7.0286   7.0286   7.1302   7.1302   7.2650   7.2650   7.2751   7.2751
     7.3154   7.3154   7.4451   7.4451   7.6812   7.6812   7.7010   7.7010
     7.7812   7.7812   7.9203   7.9203   7.9836   7.9836   8.0874   8.0874
     8.4261   8.4261   8.4286   8.4286   8.4414   8.4414   8.8076   8.8076
     8.9763   8.9763   9.0362   9.0362   9.1626   9.1626   9.5750   9.5750
    14.9102  14.9102  14.9818  14.9818  15.7691  15.7968  15.7982  15.8445

 ------ SPIN DOWN ----------


          k = 0.0000 0.0000 0.0000 ( 15339 PWs)   bands (ev):

   -75.1154 -75.1154 -75.1152 -75.1151 -75.0418 -75.0417 -75.0397 -75.0396
   -41.4353 -41.4353 -41.4333 -41.4333 -41.3142 -41.3142 -41.3059 -41.3059
   -41.2551 -41.2548 -41.2543 -41.2542 -41.1859 -41.1855 -41.1821 -41.1820
   -41.1132 -41.1131 -41.0888 -41.0888 -41.0879 -41.0877 -41.0798 -41.0798
   -11.1474 -10.9262 -10.6943 -10.5419  -9.5407  -9.4984  -9.4873  -9.4357
    -9.4061  -9.2832  -9.2416  -9.2201  -9.1953  -9.1496  -9.1243  -9.0638
     1.3136   1.3245   1.7637   1.8481   1.9073   2.0740   2.6657   2.6825
     2.7571   3.2083   3.2805   3.3465   3.5074   4.0204   4.0491   4.0886
     4.4375   4.6020   4.7615   4.8129   4.8199   4.9294   4.9471   4.9488
     4.9898   5.1002   5.1456   5.1491   5.3527   5.3677   5.4728   5.4977
     5.5495   5.5749   5.6771   5.7051   5.7819   5.7969   5.8529   5.9618
     6.2042   6.3529   6.4330   6.4570   6.6423   6.6687   6.7256   6.9058
     9.8585   9.9084  10.2208  10.2264  10.3326  10.3637  10.4146  10.4328
    10.4415  10.5485  10.6238  10.8494  10.9283  10.9525  10.9672  10.9737
    11.0014  11.0644  11.0822  11.1874  11.1888  11.1947  11.3620  11.3715
    11.8564  11.8948  11.9247  11.9856  11.9879  12.1593  12.1998  12.2756
    12.3080  12.3128  12.3480  12.4320  12.4541  12.4700  12.5339  12.7754
    12.7811  13.9294  14.4248  15.6740  16.1368  16.7157  16.7478  16.7822

          k = 0.0000 0.0000-0.3923 ( 15392 PWs)   bands (ev):

   -75.1154 -75.1154 -75.1153 -75.1153 -75.0408 -75.0408 -75.0408 -75.0408
   -41.4344 -41.4344 -41.4344 -41.4344 -41.3100 -41.3100 -41.3099 -41.3099
   -41.2547 -41.2547 -41.2545 -41.2545 -41.1839 -41.1839 -41.1838 -41.1838
   -41.0969 -41.0969 -41.0967 -41.0967 -41.0883 -41.0883 -41.0881 -41.0881
   -10.8659 -10.8659 -10.7804 -10.7804  -9.5022  -9.5022  -9.4823  -9.4823
    -9.4206  -9.4206  -9.2280  -9.2280  -9.1603  -9.1603  -9.0658  -9.0658
     1.5830   1.5830   1.6509   1.6509   2.4382   2.4382   2.4842   2.4842
     3.1106   3.1106   3.5485   3.5485   3.8152   3.8152   4.0540   4.0540
     4.2579   4.2579   4.5401   4.5401   4.7685   4.7685   4.8660   4.8660
     4.9545   4.9545   5.1417   5.1417   5.3481   5.3481   5.3713   5.3713
     5.6257   5.6257   5.7551   5.7551   5.8325   5.8325   6.0404   6.0404
     6.0820   6.0820   6.1610   6.1610   6.5527   6.5527   6.6762   6.6762
    10.3034  10.3034  10.3323  10.3323  10.3976  10.3976  10.4056  10.4056
    10.6151  10.6151  10.7193  10.7193  10.8530  10.8530  10.8801  10.8801
    10.9778  10.9778  11.0101  11.0101  11.1998  11.1998  11.2942  11.2942
    11.7827  11.7827  11.9074  11.9074  12.1661  12.1661  12.1741  12.1741
    12.3297  12.3297  12.3714  12.3714  12.5540  12.5540  12.6244  12.6244
    13.9015  13.9015  14.9265  14.9265  15.6337  15.6337  16.9869  16.9869

          k =-0.4877 0.0000 0.0000 ( 15374 PWs)   bands (ev):

   -75.1154 -75.1154 -75.1152 -75.1152 -75.0419 -75.0419 -75.0396 -75.0396
   -41.4343 -41.4343 -41.4343 -41.4343 -41.3143 -41.3143 -41.3059 -41.3059
   -41.2547 -41.2547 -41.2544 -41.2544 -41.1858 -41.1858 -41.1820 -41.1820
   -41.1132 -41.1132 -41.0883 -41.0883 -41.0883 -41.0883 -41.0798 -41.0798
   -10.7683 -10.7683 -10.4945 -10.4945  -9.8649  -9.8649  -9.6437  -9.6437
    -9.3475  -9.3475  -9.1736  -9.1736  -9.1640  -9.1640  -9.1380  -9.1380
     1.4054   1.4054   1.4522   1.4522   3.0056   3.0056   3.0839   3.0839
     3.3989   3.3989   3.4153   3.4153   3.7021   3.7021   3.7737   3.7737
     3.9800   3.9800   4.0801   4.0801   4.1308   4.1308   4.6114   4.6114
     4.9731   4.9731   5.0919   5.0919   5.5457   5.5457   5.6698   5.6698
     5.8134   5.8134   5.8474   5.8474   6.0469   6.0469   6.1125   6.1125
     6.2925   6.2925   6.4449   6.4449   6.5603   6.5603   7.0729   7.0729
     9.8958   9.8958  10.1421  10.1421  10.3492  10.3492  10.4541  10.4541
    10.5776  10.5776  10.6993  10.6993  10.9940  10.9940  11.0071  11.0071
    11.0804  11.0804  11.1416  11.1416  11.1676  11.1676  11.4207  11.4207
    11.8900  11.8900  12.0046  12.0046  12.0546  12.0546  12.1679  12.1679
    12.2131  12.2131  12.4084  12.4084  12.4645  12.4645  12.6446  12.6446
    14.3832  14.3832  15.1507  15.1507  15.7871  15.7871  16.0838  16.0838

          k =-0.4877 0.0000-0.3923 ( 15436 PWs)   bands (ev):

   -75.1154 -75.1154 -75.1154 -75.1154 -75.0408 -75.0408 -75.0408 -75.0408
   -41.4344 -41.4344 -41.4344 -41.4344 -41.3100 -41.3100 -41.3099 -41.3099
   -41.2547 -41.2547 -41.2544 -41.2544 -41.1839 -41.1839 -41.1838 -41.1838
   -41.0969 -41.0969 -41.0967 -41.0967 -41.0883 -41.0883 -41.0881 -41.0881
   -10.6300 -10.6300 -10.5983 -10.5983  -9.7631  -9.7631  -9.7548  -9.7548
    -9.3390  -9.3390  -9.2721  -9.2721  -9.1380  -9.1380  -9.1299  -9.1299
     1.5383   1.5383   1.5687   1.5687   3.1196   3.1196   3.3021   3.3021
     3.4454   3.4454   3.5540   3.5540   3.5771   3.5771   3.7326   3.7326
     3.9822   3.9822   4.0320   4.0320   4.3035   4.3035   4.3388   4.3388
     4.7091   4.7091   5.0561   5.0561   5.5307   5.5307   5.5576   5.5576
     5.7844   5.7844   5.8809   5.8809   6.1518   6.1518   6.1878   6.1878
     6.2706   6.2706   6.3277   6.3277   6.4530   6.4530   6.6628   6.6628
    10.2269  10.2269  10.2448  10.2448  10.4147  10.4147  10.4395  10.4395
    10.6933  10.6933  10.7186  10.7186  10.8968  10.8968  10.8980  10.8980
    11.0346  11.0346  11.1039  11.1039  11.1531  11.1531  11.2187  11.2187
    11.7224  11.7224  11.7565  11.7565  11.9711  11.9711  12.0375  12.0375
    12.1883  12.1883  12.3249  12.3249  12.4988  12.4988  12.8068  12.8068
    15.3519  15.3519  15.5038  15.5038  16.2732  16.2732  16.2899  16.2899

     the Fermi energy is    10.5162 ev

!    total energy              =   -3488.70097612 Ry

     total all-electron energy =    -25094.006944 Ry
     estimated scf accuracy    <          1.7E-10 Ry
     smearing contrib. (-TS)   =      -0.01064080 Ry
     internal energy E=F+TS    =   -3488.69033532 Ry

     The total energy is F=E-TS. E is the sum of the following terms:
     one-electron contribution =   -1483.42513361 Ry
     hartree contribution      =     868.70878582 Ry
     xc contribution           =    -368.40373455 Ry
     ewald contribution        =   -1547.81499110 Ry
     one-center paw contrib.   =    -957.75526189 Ry

     total magnetization       =    32.00 Bohr mag/cell
     absolute magnetization    =    32.10 Bohr mag/cell

     convergence has been achieved in  10 iterations

     negative rho (up, down):  0.000E+00 3.101E-03

     Forces acting on atoms (cartesian axes, Ry/au):

     atom    1 type  1   force =     0.00000000   -0.00000000   -0.00000000
     atom    2 type  1   force =    -0.00000000    0.00000000    0.00000000
     atom    3 type  1   force =     0.00000000    0.00000000    0.00000000
     atom    4 type  1   force =     0.00000000    0.00000000    0.00000000
     atom    5 type  1   force =    -0.00021492   -0.00020882    0.00000000
     atom    6 type  1   force =     0.00021492    0.00020882    0.00000000
     atom    7 type  1   force =    -0.00021492    0.00020882    0.00000000
     atom    8 type  1   force =     0.00021492   -0.00020882   -0.00000000
     atom    9 type  2   force =     0.00007704    0.00011752    0.00000000
     atom   10 type  2   force =    -0.00007704   -0.00011752    0.00000000
     atom   11 type  2   force =     0.00007704   -0.00011752   -0.00000000
     atom   12 type  2   force =    -0.00007704    0.00011752   -0.00000000
     atom   13 type  3   force =    -0.00006433    0.00006981    0.00000000
     atom   14 type  3   force =     0.00006433   -0.00006981    0.00000000
     atom   15 type  3   force =    -0.00006433   -0.00006981    0.00000000
     atom   16 type  3   force =     0.00006433    0.00006981    0.00000000
     atom   17 type  3   force =     0.00010446    0.00021828   -0.00000000
     atom   18 type  3   force =    -0.00010446   -0.00021828    0.00000000
     atom   19 type  3   force =     0.00010446   -0.00021828    0.00000000
     atom   20 type  3   force =    -0.00010446    0.00021828    0.00000000
     atom   21 type  3   force =    -0.00023674   -0.00007230   -0.00004452
     atom   22 type  3   force =     0.00023674    0.00007230    0.00004452
     atom   23 type  3   force =    -0.00023674    0.00007230    0.00004452
     atom   24 type  3   force =     0.00023674   -0.00007230   -0.00004452
     atom   25 type  3   force =     0.00023674    0.00007230   -0.00004452
     atom   26 type  3   force =    -0.00023674   -0.00007230    0.00004452
     atom   27 type  3   force =     0.00023674   -0.00007230    0.00004452
     atom   28 type  3   force =    -0.00023674    0.00007230   -0.00004452

     Total force =     0.001102     Total SCF correction =     0.000046


     Computing stress (Cartesian axis) and pressure


     negative rho (up, down):  0.000E+00 3.101E-03
          total   stress  (Ry/bohr**3)                   (kbar)     P=        0.02
  -0.00000022   0.00000000   0.00000000           -0.03        0.00        0.00
   0.00000000  -0.00000018   0.00000000            0.00       -0.03        0.00
   0.00000000   0.00000000   0.00000076            0.00        0.00        0.11

     Energy error            =      3.7E-06
     Gradient error          =      2.4E-04
     Cell gradient error     =      7.6E-07


     number of scf cycles    =  20
     number of bfgs steps    =  19

     enthalpy old            =   -3488.7009724266 Ry
     enthalpy new            =   -3488.7009761169 Ry

     CASE: enthalpy_new < enthalpy_old

     new trust radius        =       0.0010730738 bohr
     new conv_thr            =       0.0000000010 Ry

     new unit-cell volume =   2092.03143 a.u.^3 (   310.00707 Ang^3 )
     density =      4.36596 g/cm^3

CELL_PARAMETERS (angstrom)
   4.874328615   0.000000000   0.000000000
   0.000000000  10.496299164   0.000000000
   0.000000000   0.000000000   6.059274109

ATOMIC_POSITIONS (angstrom)
Fe            0.0000000000       -0.0000000000        0.0000000000
Fe            2.4371643073        5.2481495818        0.0000000000
Fe           -0.0000000000        0.0000000000        3.0296370545
Fe            2.4371643073        5.2481495818        3.0296370545
Fe            0.0949832343        2.9300012983        4.5444555817
Fe            4.7793453804        7.5662978654        1.5148185272
Fe            2.5321475417        2.3181482836        1.5148185272
Fe            2.3421810730        8.1781508801        4.5444555817
Si            0.3450457003        4.2315828242        1.5148185272
Si            4.5292829144        6.2647163395        4.5444555817
Si            2.7822100076        1.0165667577        4.5444555817
Si            2.0921186071        9.4797324060        1.5148185272
O             1.1442128624        0.9921335593        4.5444555817
O             3.7301157523        9.5041656044        1.5148185272
O             3.5813771697        4.2560160225        1.5148185272
O             1.2929514449        6.2402831412        4.5444555817
O             1.4468977841        0.5203753232        1.5148185272
O             3.4274308306        9.9759238404        4.5444555817
O             3.8840620914        4.7277742586        4.5444555817
O             0.9902665233        5.7685249051        1.5148185272
O             1.0471956566        3.5032197086        2.8226456117
O             3.8271329581        6.9930794551        3.2366284972
O             3.4843599639        1.7449298732        3.2366284972
O             1.3899686508        8.7513692905        2.8226456117
O             3.8271329581        6.9930794551        5.8522826662
O             1.0471956566        3.5032197086        0.2069914427
O             1.3899686508        8.7513692905        0.2069914427
O             3.4843599639        1.7449298732        5.8522826662



     Writing output data file ./out/oliv.save/
     NEW-OLD atomic charge density approx. for the potential

     Check: negative core charge=   -0.000002

     negative rho (up, down):  0.000E+00 3.108E-03
     extrapolated charge  240.00155, renormalised to  240.00000
     Generating pointlists ...

     total cpu time spent up to now is    30340.0 secs

     Self-consistent Calculation

     iteration #  1     ecut=    60.00 Ry     beta= 0.30
     Davidson diagonalization with overlap
     ethr =  1.00E-06,  avg # of iterations =  2.0

     Threshold (ethr) on eigenvalues was too large:
     Diagonalizing with lowered threshold

     Davidson diagonalization with overlap
     ethr =  1.27E-09,  avg # of iterations =  8.4

     negative rho (up, down):  0.000E+00 3.109E-03

     total cpu time spent up to now is    30493.2 secs

     total energy              =   -3488.70097740 Ry
     estimated scf accuracy    <       0.00000195 Ry

     total magnetization       =    32.00 Bohr mag/cell
     absolute magnetization    =    32.10 Bohr mag/cell

     iteration #  2     ecut=    60.00 Ry     beta= 0.30
     Davidson diagonalization with overlap
     ethr =  8.12E-10,  avg # of iterations =  2.1

     negative rho (up, down):  0.000E+00 3.109E-03

     total cpu time spent up to now is    30532.2 secs

     total energy              =   -3488.70097767 Ry
     estimated scf accuracy    <       0.00000091 Ry

     total magnetization       =    32.00 Bohr mag/cell
     absolute magnetization    =    32.10 Bohr mag/cell

     iteration #  3     ecut=    60.00 Ry     beta= 0.30
     Davidson diagonalization with overlap
     ethr =  3.81E-10,  avg # of iterations =  2.0

     negative rho (up, down):  0.000E+00 3.109E-03

     total cpu time spent up to now is    30572.3 secs

     total energy              =   -3488.70097758 Ry
     estimated scf accuracy    <       0.00000352 Ry

     total magnetization       =    32.00 Bohr mag/cell
     absolute magnetization    =    32.10 Bohr mag/cell

     iteration #  4     ecut=    60.00 Ry     beta= 0.30
     Davidson diagonalization with overlap
     ethr =  3.81E-10,  avg # of iterations =  1.8

     negative rho (up, down):  0.000E+00 3.109E-03

     total cpu time spent up to now is    30611.9 secs

     total energy              =   -3488.70097794 Ry
     estimated scf accuracy    <       0.00000225 Ry

     total magnetization       =    32.00 Bohr mag/cell
     absolute magnetization    =    32.10 Bohr mag/cell

     iteration #  5     ecut=    60.00 Ry     beta= 0.30
     Davidson diagonalization with overlap
     ethr =  3.81E-10,  avg # of iterations =  1.6

     negative rho (up, down):  0.000E+00 3.110E-03

     total cpu time spent up to now is    30652.1 secs

     total energy              =   -3488.70097813 Ry
     estimated scf accuracy    <       0.00000008 Ry

     total magnetization       =    32.00 Bohr mag/cell
     absolute magnetization    =    32.10 Bohr mag/cell

     iteration #  6     ecut=    60.00 Ry     beta= 0.30
     Davidson diagonalization with overlap
     ethr =  3.49E-11,  avg # of iterations =  4.0

     negative rho (up, down):  0.000E+00 3.110E-03

     total cpu time spent up to now is    30708.8 secs

     total energy              =   -3488.70097818 Ry
     estimated scf accuracy    <       0.00000003 Ry

     total magnetization       =    32.00 Bohr mag/cell
     absolute magnetization    =    32.10 Bohr mag/cell

     iteration #  7     ecut=    60.00 Ry     beta= 0.30
     Davidson diagonalization with overlap
     ethr =  1.27E-11,  avg # of iterations =  3.1

     negative rho (up, down):  0.000E+00 3.110E-03

     total cpu time spent up to now is    30757.2 secs

     total energy              =   -3488.70097818 Ry
     estimated scf accuracy    <       0.00000002 Ry

     total magnetization       =    32.00 Bohr mag/cell
     absolute magnetization    =    32.10 Bohr mag/cell

     iteration #  8     ecut=    60.00 Ry     beta= 0.30
     Davidson diagonalization with overlap
     ethr =  6.62E-12,  avg # of iterations =  2.0

     negative rho (up, down):  0.000E+00 3.110E-03

     total cpu time spent up to now is    30790.5 secs

     total energy              =   -3488.70097819 Ry
     estimated scf accuracy    <          2.9E-09 Ry

     total magnetization       =    32.00 Bohr mag/cell
     absolute magnetization    =    32.10 Bohr mag/cell

     iteration #  9     ecut=    60.00 Ry     beta= 0.30
     Davidson diagonalization with overlap
     ethr =  1.19E-12,  avg # of iterations =  4.6

     negative rho (up, down):  0.000E+00 3.110E-03

     Magnetic moment per site:
     atom:    1    charge:   13.3638    magn:    3.3190    constr:    0.0000
     atom:    2    charge:   13.3638    magn:    3.3190    constr:    0.0000
     atom:    3    charge:   13.3638    magn:    3.3190    constr:    0.0000
     atom:    4    charge:   13.3638    magn:    3.3190    constr:    0.0000
     atom:    5    charge:   13.3279    magn:    3.4141    constr:    0.0000
     atom:    6    charge:   13.3279    magn:    3.4141    constr:    0.0000
     atom:    7    charge:   13.3279    magn:    3.4141    constr:    0.0000
     atom:    8    charge:   13.3279    magn:    3.4141    constr:    0.0000
     atom:    9    charge:    0.3879    magn:    0.0043    constr:    0.0000
     atom:   10    charge:    0.3879    magn:    0.0043    constr:    0.0000
     atom:   11    charge:    0.3879    magn:    0.0043    constr:    0.0000
     atom:   12    charge:    0.3879    magn:    0.0043    constr:    0.0000
     atom:   13    charge:    4.0295    magn:    0.1039    constr:    0.0000
     atom:   14    charge:    4.0295    magn:    0.1039    constr:    0.0000
     atom:   15    charge:    4.0295    magn:    0.1039    constr:    0.0000
     atom:   16    charge:    4.0295    magn:    0.1039    constr:    0.0000
     atom:   17    charge:    4.0232    magn:    0.1180    constr:    0.0000
     atom:   18    charge:    4.0232    magn:    0.1180    constr:    0.0000
     atom:   19    charge:    4.0232    magn:    0.1180    constr:    0.0000
     atom:   20    charge:    4.0232    magn:    0.1180    constr:    0.0000
     atom:   21    charge:    4.0207    magn:    0.1200    constr:    0.0000
     atom:   22    charge:    4.0207    magn:    0.1200    constr:    0.0000
     atom:   23    charge:    4.0207    magn:    0.1200    constr:    0.0000
     atom:   24    charge:    4.0207    magn:    0.1200    constr:    0.0000
     atom:   25    charge:    4.0207    magn:    0.1200    constr:    0.0000
     atom:   26    charge:    4.0207    magn:    0.1200    constr:    0.0000
     atom:   27    charge:    4.0207    magn:    0.1200    constr:    0.0000
     atom:   28    charge:    4.0207    magn:    0.1200    constr:    0.0000

     total cpu time spent up to now is    30841.3 secs

     End of self-consistent calculation

 ------ SPIN UP ------------


          k = 0.0000 0.0000 0.0000 ( 15339 PWs)   bands (ev):

   -79.3393 -79.3393 -79.3393 -79.3393 -79.1204 -79.1204 -79.1185 -79.1185
   -46.0108 -46.0108 -46.0095 -46.0095 -45.6249 -45.6249 -45.6190 -45.6190
   -45.2796 -45.2795 -45.2794 -45.2793 -45.0801 -45.0800 -45.0777 -45.0776
   -44.8611 -44.8611 -44.8603 -44.8603 -44.8514 -44.8514 -44.8236 -44.8236
   -11.3629 -11.1383 -10.9076 -10.7523  -9.7602  -9.7264  -9.7181  -9.6654
    -9.6447  -9.5333  -9.4856  -9.4673  -9.4496  -9.4005  -9.3805  -9.3171
     1.0468   1.0711   1.5489   1.5642   1.6432   1.7096   2.3194   2.3224
     2.3240   2.8184   2.9366   2.9970   3.1173   3.5799   3.7274   3.7830
     3.9986   4.0618   4.0685   4.1297   4.2620   4.3534   4.3655   4.4247
     4.4310   4.5207   4.5359   4.5367   4.6197   4.6815   4.7278   4.7625
     4.8300   4.9457   4.9692   4.9951   5.1731   5.2072   5.3296   5.3575
     5.3912   5.6620   5.9810   6.0024   6.0183   6.1786   6.1807   6.3572
     6.7545   6.9957   7.0294   7.0449   7.1025   7.1420   7.1740   7.3118
     7.3610   7.3848   7.3923   7.5154   7.5332   7.5639   7.8195   7.8347
     7.8565   7.9825   8.0009   8.0381   8.0626   8.0748   8.0930   8.2026
     8.3299   8.3351   8.3425   8.3982   8.6008   8.7289   8.8775   8.9283
     8.9609   9.0249   9.2103   9.2455   9.2865   9.4090   9.4306   9.6111
    11.3636  13.3480  13.9148  15.2403  15.7790  16.2613  16.3240  16.3641

          k = 0.0000 0.0000-0.3923 ( 15392 PWs)   bands (ev):

   -79.3393 -79.3393 -79.3393 -79.3393 -79.1195 -79.1195 -79.1195 -79.1195
   -46.0102 -46.0102 -46.0102 -46.0102 -45.6219 -45.6219 -45.6219 -45.6219
   -45.2795 -45.2795 -45.2794 -45.2794 -45.0789 -45.0789 -45.0788 -45.0788
   -44.8607 -44.8607 -44.8607 -44.8607 -44.8376 -44.8376 -44.8376 -44.8376
   -11.0798 -11.0798 -10.9920 -10.9920  -9.7372  -9.7372  -9.7068  -9.7068
    -9.6605  -9.6605  -9.4759  -9.4759  -9.4123  -9.4123  -9.3178  -9.3178
     1.3257   1.3257   1.4049   1.4049   2.0640   2.0640   2.1351   2.1351
     2.7440   2.7440   3.2132   3.2132   3.4418   3.4418   3.6914   3.6914
     3.7416   3.7416   3.9794   3.9794   4.1483   4.1483   4.3547   4.3547
     4.4155   4.4155   4.5016   4.5016   4.7082   4.7082   4.7489   4.7489
     4.8394   4.8394   5.0405   5.0405   5.1144   5.1144   5.4605   5.4605
     5.6198   5.6198   5.6760   5.6760   5.8052   5.8052   5.9204   5.9204
     7.0506   7.0506   7.0542   7.0542   7.1890   7.1890   7.1975   7.1975
     7.4873   7.4873   7.5326   7.5326   7.5974   7.5974   7.7469   7.7469
     8.0114   8.0114   8.0326   8.0326   8.0932   8.0932   8.1423   8.1423
     8.4141   8.4141   8.5156   8.5156   8.7291   8.7291   8.7512   8.7512
     8.8791   8.8791   8.8981   8.8981   9.1914   9.1914   9.4443   9.4443
    13.2842  13.2842  14.4119  14.4119  15.1251  15.1251  16.6331  16.6332

          k =-0.4877 0.0000 0.0000 ( 15374 PWs)   bands (ev):

   -79.3393 -79.3393 -79.3393 -79.3393 -79.1205 -79.1205 -79.1185 -79.1185
   -46.0102 -46.0102 -46.0102 -46.0102 -45.6249 -45.6249 -45.6190 -45.6190
   -45.2795 -45.2795 -45.2794 -45.2794 -45.0801 -45.0801 -45.0777 -45.0777
   -44.8608 -44.8608 -44.8607 -44.8607 -44.8514 -44.8514 -44.8236 -44.8236
   -10.9802 -10.9802 -10.7136 -10.7136 -10.0885 -10.0885  -9.8657  -9.8657
    -9.5966  -9.5966  -9.4272  -9.4272  -9.4138  -9.4138  -9.3831  -9.3831
     1.1110   1.1110   1.2148   1.2148   2.6730   2.6730   2.7679   2.7679
     2.9855   2.9855   3.0162   3.0162   3.2776   3.2776   3.3368   3.3368
     3.5585   3.5585   3.5756   3.5756   3.7430   3.7430   4.2511   4.2511
     4.3589   4.3589   4.4222   4.4222   4.8344   4.8344   4.9053   4.9053
     4.9744   4.9744   5.1024   5.1024   5.2435   5.2435   5.5458   5.5458
     5.6289   5.6289   5.8016   5.8016   6.0047   6.0047   6.6755   6.6755
     6.9924   6.9924   7.0497   7.0497   7.1328   7.1328   7.2247   7.2247
     7.2851   7.2851   7.3237   7.3237   7.4760   7.4760   7.7566   7.7566
     7.8327   7.8327   8.0445   8.0445   8.1341   8.1341   8.1963   8.1963
     8.5129   8.5129   8.7276   8.7276   8.7379   8.7379   8.8417   8.8417
     8.9464   8.9464   9.0071   9.0071   9.1725   9.1725   9.3760   9.3760
    13.9362  13.9362  14.8074  14.8074  15.2094  15.2094  15.4926  15.4926

          k =-0.4877 0.0000-0.3923 ( 15436 PWs)   bands (ev):

   -79.3394 -79.3394 -79.3393 -79.3393 -79.1195 -79.1195 -79.1195 -79.1195
   -46.0102 -46.0102 -46.0102 -46.0102 -45.6219 -45.6219 -45.6219 -45.6219
   -45.2795 -45.2795 -45.2794 -45.2794 -45.0789 -45.0789 -45.0788 -45.0788
   -44.8607 -44.8607 -44.8607 -44.8607 -44.8376 -44.8376 -44.8376 -44.8376
   -10.8446 -10.8446 -10.8130 -10.8130  -9.9853  -9.9853  -9.9797  -9.9797
    -9.5879  -9.5879  -9.5210  -9.5210  -9.3898  -9.3898  -9.3775  -9.3775
     1.2708   1.2708   1.2752   1.2752   2.7256   2.7256   2.8943   2.8943
     3.0626   3.0626   3.1516   3.1516   3.1730   3.1730   3.3836   3.3836
     3.5196   3.5196   3.6298   3.6298   3.7390   3.7390   3.8476   3.8476
     4.2833   4.2833   4.5689   4.5689   4.9963   4.9963   5.0713   5.0713
     5.1557   5.1557   5.2477   5.2477   5.2613   5.2613   5.3060   5.3060
     5.5069   5.5069   5.5981   5.5981   5.8834   5.8834   6.0419   6.0419
     7.0284   7.0284   7.1302   7.1302   7.2650   7.2650   7.2751   7.2751
     7.3151   7.3151   7.4448   7.4448   7.6811   7.6811   7.7008   7.7008
     7.7810   7.7810   7.9200   7.9200   7.9835   7.9835   8.0872   8.0872
     8.4257   8.4257   8.4286   8.4286   8.4415   8.4415   8.8078   8.8078
     8.9759   8.9759   9.0359   9.0359   9.1624   9.1624   9.5750   9.5750
    14.9099  14.9099  14.9814  14.9814  15.7695  15.7979  15.7990  15.8439

 ------ SPIN DOWN ----------


          k = 0.0000 0.0000 0.0000 ( 15339 PWs)   bands (ev):

   -75.1157 -75.1157 -75.1156 -75.1155 -75.0419 -75.0418 -75.0398 -75.0397
   -41.4356 -41.4355 -41.4335 -41.4335 -41.3143 -41.3143 -41.3060 -41.3060
   -41.2555 -41.2552 -41.2547 -41.2546 -41.1861 -41.1857 -41.1823 -41.1822
   -41.1132 -41.1131 -41.0892 -41.0891 -41.0882 -41.0880 -41.0799 -41.0798
   -11.1473 -10.9261 -10.6941 -10.5417  -9.5403  -9.4981  -9.4871  -9.4355
    -9.4062  -9.2838  -9.2417  -9.2206  -9.1952  -9.1494  -9.1248  -9.0643
     1.3139   1.3245   1.7638   1.8478   1.9063   2.0738   2.6652   2.6823
     2.7571   3.2084   3.2803   3.3463   3.5073   4.0198   4.0488   4.0879
     4.4379   4.6013   4.7620   4.8130   4.8193   4.9289   4.9474   4.9485
     4.9905   5.1009   5.1456   5.1491   5.3523   5.3665   5.4728   5.4966
     5.5497   5.5752   5.6763   5.7049   5.7822   5.7968   5.8529   5.9624
     6.2038   6.3535   6.4329   6.4562   6.6422   6.6683   6.7255   6.9060
     9.8588   9.9085  10.2208  10.2262  10.3320  10.3634  10.4142  10.4329
    10.4412  10.5480  10.6232  10.8492  10.9281  10.9522  10.9670  10.9736
    11.0011  11.0643  11.0821  11.1875  11.1884  11.1946  11.3617  11.3712
    11.8559  11.8944  11.9243  11.9852  11.9875  12.1595  12.1995  12.2758
    12.3079  12.3123  12.3481  12.4318  12.4540  12.4697  12.5335  12.7752
    12.7811  13.9298  14.4251  15.6747  16.1368  16.7163  16.7497  16.7843

          k = 0.0000 0.0000-0.3923 ( 15392 PWs)   bands (ev):

   -75.1157 -75.1157 -75.1156 -75.1156 -75.0409 -75.0409 -75.0409 -75.0409
   -41.4347 -41.4347 -41.4346 -41.4346 -41.3101 -41.3101 -41.3100 -41.3100
   -41.2551 -41.2551 -41.2549 -41.2549 -41.1841 -41.1841 -41.1839 -41.1839
   -41.0969 -41.0969 -41.0968 -41.0968 -41.0887 -41.0887 -41.0885 -41.0885
   -10.8658 -10.8658 -10.7803 -10.7803  -9.5022  -9.5022  -9.4821  -9.4821
    -9.4207  -9.4207  -9.2283  -9.2283  -9.1605  -9.1605  -9.0660  -9.0660
     1.5831   1.5831   1.6511   1.6511   2.4375   2.4375   2.4839   2.4839
     3.1103   3.1103   3.5479   3.5479   3.8151   3.8151   4.0536   4.0536
     4.2576   4.2576   4.5400   4.5400   4.7690   4.7690   4.8657   4.8657
     4.9542   4.9542   5.1414   5.1414   5.3477   5.3477   5.3714   5.3714
     5.6260   5.6260   5.7545   5.7545   5.8329   5.8329   6.0406   6.0406
     6.0820   6.0820   6.1610   6.1610   6.5528   6.5528   6.6765   6.6765
    10.3031  10.3031  10.3319  10.3319  10.3971  10.3971  10.4054  10.4054
    10.6148  10.6148  10.7192  10.7192  10.8527  10.8527  10.8800  10.8800
    10.9775  10.9775  11.0100  11.0100  11.1996  11.1996  11.2942  11.2942
    11.7823  11.7823  11.9070  11.9070  12.1661  12.1661  12.1738  12.1738
    12.3296  12.3296  12.3711  12.3711  12.5538  12.5538  12.6243  12.6243
    13.9016  13.9016  14.9268  14.9268  15.6338  15.6338  16.9883  16.9883

          k =-0.4877 0.0000 0.0000 ( 15374 PWs)   bands (ev):

   -75.1157 -75.1157 -75.1156 -75.1156 -75.0420 -75.0420 -75.0397 -75.0397
   -41.4346 -41.4346 -41.4346 -41.4346 -41.3143 -41.3143 -41.3060 -41.3060
   -41.2551 -41.2551 -41.2548 -41.2548 -41.1859 -41.1859 -41.1822 -41.1822
   -41.1132 -41.1132 -41.0887 -41.0887 -41.0886 -41.0886 -41.0799 -41.0799
   -10.7683 -10.7683 -10.4943 -10.4943  -9.8647  -9.8647  -9.6435  -9.6435
    -9.3476  -9.3476  -9.1741  -9.1741  -9.1646  -9.1646  -9.1379  -9.1379
     1.4049   1.4049   1.4514   1.4514   3.0057   3.0057   3.0839   3.0839
     3.3992   3.3992   3.4153   3.4153   3.7019   3.7019   3.7735   3.7735
     3.9802   3.9802   4.0795   4.0795   4.1312   4.1312   4.6121   4.6121
     4.9731   4.9731   5.0905   5.0905   5.5451   5.5451   5.6701   5.6701
     5.8134   5.8134   5.8467   5.8467   6.0471   6.0471   6.1128   6.1128
     6.2923   6.2923   6.4449   6.4449   6.5602   6.5602   7.0728   7.0728
     9.8957   9.8957  10.1424  10.1424  10.3489  10.3489  10.4538  10.4538
    10.5771  10.5771  10.6989  10.6989  10.9939  10.9939  11.0070  11.0070
    11.0801  11.0801  11.1416  11.1416  11.1674  11.1674  11.4203  11.4203
    11.8898  11.8898  12.0042  12.0042  12.0541  12.0541  12.1678  12.1678
    12.2131  12.2131  12.4083  12.4083  12.4640  12.4640  12.6444  12.6444
    14.3834  14.3834  15.1506  15.1506  15.7875  15.7875  16.0829  16.0829

          k =-0.4877 0.0000-0.3923 ( 15436 PWs)   bands (ev):

   -75.1158 -75.1158 -75.1157 -75.1157 -75.0409 -75.0409 -75.0409 -75.0409
   -41.4347 -41.4347 -41.4346 -41.4346 -41.3101 -41.3101 -41.3100 -41.3100
   -41.2551 -41.2551 -41.2548 -41.2548 -41.1841 -41.1841 -41.1839 -41.1839
   -41.0970 -41.0970 -41.0968 -41.0968 -41.0887 -41.0887 -41.0884 -41.0884
   -10.6298 -10.6298 -10.5981 -10.5981  -9.7629  -9.7629  -9.7546  -9.7546
    -9.3393  -9.3393  -9.2725  -9.2725  -9.1382  -9.1382  -9.1302  -9.1302
     1.5378   1.5378   1.5680   1.5680   3.1195   3.1195   3.3021   3.3021
     3.4452   3.4452   3.5539   3.5539   3.5770   3.5770   3.7324   3.7324
     3.9821   3.9821   4.0323   4.0323   4.3033   4.3033   4.3387   4.3387
     4.7087   4.7087   5.0563   5.0563   5.5302   5.5302   5.5575   5.5575
     5.7843   5.7843   5.8808   5.8808   6.1521   6.1521   6.1876   6.1876
     6.2706   6.2706   6.3277   6.3277   6.4532   6.4532   6.6628   6.6628
    10.2265  10.2265  10.2445  10.2445  10.4145  10.4145  10.4393  10.4393
    10.6933  10.6933  10.7184  10.7184  10.8968  10.8968  10.8979  10.8979
    11.0343  11.0343  11.1037  11.1037  11.1529  11.1529  11.2186  11.2186
    11.7219  11.7219  11.7562  11.7562  11.9711  11.9711  12.0375  12.0375
    12.1880  12.1880  12.3247  12.3247  12.4986  12.4986  12.8066  12.8066
    15.3515  15.3515  15.5036  15.5036  16.2743  16.2743  16.2910  16.2910

     the Fermi energy is    10.5159 ev

!    total energy              =   -3488.70097819 Ry

     total all-electron energy =    -25094.006946 Ry
     estimated scf accuracy    <          9.8E-10 Ry
     smearing contrib. (-TS)   =      -0.01064437 Ry
     internal energy E=F+TS    =   -3488.69033382 Ry

     The total energy is F=E-TS. E is the sum of the following terms:
     one-electron contribution =   -1483.41474611 Ry
     hartree contribution      =     868.70196832 Ry
     xc contribution           =    -368.40348474 Ry
     ewald contribution        =   -1547.81883884 Ry
     one-center paw contrib.   =    -957.75523245 Ry

     total magnetization       =    32.00 Bohr mag/cell
     absolute magnetization    =    32.10 Bohr mag/cell

     convergence has been achieved in   9 iterations

     negative rho (up, down):  0.000E+00 3.110E-03

     Forces acting on atoms (cartesian axes, Ry/au):

     atom    1 type  1   force =     0.00000000    0.00000000   -0.00000000
     atom    2 type  1   force =     0.00000000    0.00000000    0.00000000
     atom    3 type  1   force =     0.00000000    0.00000000    0.00000000
     atom    4 type  1   force =    -0.00000000   -0.00000000    0.00000000
     atom    5 type  1   force =    -0.00021171   -0.00018493    0.00000000
     atom    6 type  1   force =     0.00021171    0.00018493    0.00000000
     atom    7 type  1   force =    -0.00021171    0.00018493    0.00000000
     atom    8 type  1   force =     0.00021171   -0.00018493    0.00000000
     atom    9 type  2   force =    -0.00007170    0.00017046    0.00000000
     atom   10 type  2   force =     0.00007170   -0.00017046    0.00000000
     atom   11 type  2   force =    -0.00007170   -0.00017046   -0.00000000
     atom   12 type  2   force =     0.00007170    0.00017046    0.00000000
     atom   13 type  3   force =    -0.00004706    0.00006136    0.00000000
     atom   14 type  3   force =     0.00004706   -0.00006136    0.00000000
     atom   15 type  3   force =    -0.00004706   -0.00006136   -0.00000000
     atom   16 type  3   force =     0.00004706    0.00006136    0.00000000
     atom   17 type  3   force =     0.00004035    0.00014292   -0.00000000
     atom   18 type  3   force =    -0.00004035   -0.00014292    0.00000000
     atom   19 type  3   force =     0.00004035   -0.00014292   -0.00000000
     atom   20 type  3   force =    -0.00004035    0.00014292    0.00000000
     atom   21 type  3   force =    -0.00014446   -0.00006653   -0.00018369
     atom   22 type  3   force =     0.00014446    0.00006653    0.00018369
     atom   23 type  3   force =    -0.00014446    0.00006653    0.00018369
     atom   24 type  3   force =     0.00014446   -0.00006653   -0.00018369
     atom   25 type  3   force =     0.00014446    0.00006653   -0.00018369
     atom   26 type  3   force =    -0.00014446   -0.00006653    0.00018369
     atom   27 type  3   force =     0.00014446   -0.00006653    0.00018369
     atom   28 type  3   force =    -0.00014446    0.00006653   -0.00018369

     Total force =     0.001018     Total SCF correction =     0.000115
     SCF correction compared to forces is large: reduce conv_thr to get better values


     Computing stress (Cartesian axis) and pressure


     negative rho (up, down):  0.000E+00 3.110E-03
          total   stress  (Ry/bohr**3)                   (kbar)     P=       -0.02
   0.00000035   0.00000000   0.00000000            0.05        0.00        0.00
   0.00000000  -0.00000032   0.00000000            0.00       -0.05        0.00
   0.00000000   0.00000000  -0.00000052            0.00        0.00       -0.08

     Energy error            =      2.1E-06
     Gradient error          =      2.1E-04
     Cell gradient error     =      5.2E-07


     number of scf cycles    =  21
     number of bfgs steps    =  20

     enthalpy old            =   -3488.7009761169 Ry
     enthalpy new            =   -3488.7009781871 Ry

     CASE: enthalpy_new < enthalpy_old

     new trust radius        =       0.0013242377 bohr
     new conv_thr            =       0.0000000010 Ry

     new unit-cell volume =   2092.01609 a.u.^3 (   310.00480 Ang^3 )
     density =      4.36599 g/cm^3

CELL_PARAMETERS (angstrom)
   4.874133403   0.000000000   0.000000000
   0.000000000  10.495971415   0.000000000
   0.000000000   0.000000000   6.059661559

ATOMIC_POSITIONS (angstrom)
Fe            0.0000000000       -0.0000000000        0.0000000000
Fe            2.4370667015        5.2479857074        0.0000000000
Fe           -0.0000000000        0.0000000000        3.0298307795
Fe            2.4370667015        5.2479857074        3.0298307795
Fe            0.0944842454        2.9296301719        4.5447461692
Fe            4.7796491577        7.5663412428        1.5149153897
Fe            2.5315509470        2.3183555355        1.5149153897
Fe            2.3425824561        8.1776158793        4.5447461692
Si            0.3448884275        4.2316218139        1.5149153897
Si            4.5292449756        6.2643496008        4.5447461692
Si            2.7819551290        1.0163638935        4.5447461692
Si            2.0921782741        9.4796075213        1.5149153897
O             1.1439160802        0.9920662325        4.5447461692
O             3.7302173229        9.5039051822        1.5149153897
O             3.5809827817        4.2559194748        1.5149153897
O             1.2931506213        6.2400519399        4.5447461692
O             1.4468988791        0.5205217057        1.5149153897
O             3.4272345240        9.9754497090        4.5447461692
O             3.8839655806        4.7274640017        4.5447461692
O             0.9901678224        5.7685074131        1.5149153897
O             1.0464578288        3.5031055536        2.8229081857
O             3.8276755742        6.9928658612        3.2367533732
O             3.4835245304        1.7448801538        3.2367533732
O             1.3906088727        8.7510912609        2.8229081857
O             3.8276755742        6.9928658612        5.8527389651
O             1.0464578288        3.5031055536        0.2069225938
O             1.3906088727        8.7510912609        0.2069225938
O             3.4835245304        1.7448801538        5.8527389651



     Writing output data file ./out/oliv.save/
     NEW-OLD atomic charge density approx. for the potential

     Check: negative core charge=   -0.000002

     negative rho (up, down):  0.000E+00 3.121E-03
     extrapolated charge  239.99824, renormalised to  240.00000
     Generating pointlists ...

     total cpu time spent up to now is    30882.2 secs

     Self-consistent Calculation

     iteration #  1     ecut=    60.00 Ry     beta= 0.30
     Davidson diagonalization with overlap
     ethr =  1.00E-06,  avg # of iterations =  3.0

     Threshold (ethr) on eigenvalues was too large:
     Diagonalizing with lowered threshold

     Davidson diagonalization with overlap
     ethr =  1.58E-09,  avg # of iterations =  8.8

     negative rho (up, down):  0.000E+00 3.122E-03

     total cpu time spent up to now is    31040.5 secs

     total energy              =   -3488.70097856 Ry
     estimated scf accuracy    <       0.00000358 Ry

     total magnetization       =    32.00 Bohr mag/cell
     absolute magnetization    =    32.10 Bohr mag/cell

     iteration #  2     ecut=    60.00 Ry     beta= 0.30
     Davidson diagonalization with overlap
     ethr =  1.49E-09,  avg # of iterations =  2.0

     negative rho (up, down):  0.000E+00 3.122E-03

     total cpu time spent up to now is    31084.7 secs

     total energy              =   -3488.70097853 Ry
     estimated scf accuracy    <       0.00000592 Ry

     total magnetization       =    32.00 Bohr mag/cell
     absolute magnetization    =    32.10 Bohr mag/cell

     iteration #  3     ecut=    60.00 Ry     beta= 0.30
     Davidson diagonalization with overlap
     ethr =  1.49E-09,  avg # of iterations =  1.0

     negative rho (up, down):  0.000E+00 3.123E-03

     total cpu time spent up to now is    31119.2 secs

     total energy              =   -3488.70097885 Ry
     estimated scf accuracy    <       0.00001518 Ry

     total magnetization       =    32.00 Bohr mag/cell
     absolute magnetization    =    32.10 Bohr mag/cell

     iteration #  4     ecut=    60.00 Ry     beta= 0.30
     Davidson diagonalization with overlap
     ethr =  1.49E-09,  avg # of iterations =  1.5

     negative rho (up, down):  0.000E+00 3.123E-03

     total cpu time spent up to now is    31158.4 secs

     total energy              =   -3488.70097993 Ry
     estimated scf accuracy    <       0.00000070 Ry

     total magnetization       =    32.00 Bohr mag/cell
     absolute magnetization    =    32.10 Bohr mag/cell

     iteration #  5     ecut=    60.00 Ry     beta= 0.30
     Davidson diagonalization with overlap
     ethr =  2.90E-10,  avg # of iterations =  2.0

     negative rho (up, down):  0.000E+00 3.123E-03

     total cpu time spent up to now is    31205.3 secs

     total energy              =   -3488.70098022 Ry
     estimated scf accuracy    <       0.00000026 Ry

     total magnetization       =    32.00 Bohr mag/cell
     absolute magnetization    =    32.10 Bohr mag/cell

     iteration #  6     ecut=    60.00 Ry     beta= 0.30
     Davidson diagonalization with overlap
     ethr =  1.08E-10,  avg # of iterations =  2.2

     negative rho (up, down):  0.000E+00 3.124E-03

     total cpu time spent up to now is    31247.9 secs

     total energy              =   -3488.70098032 Ry
     estimated scf accuracy    <       0.00000007 Ry

     total magnetization       =    32.00 Bohr mag/cell
     absolute magnetization    =    32.10 Bohr mag/cell

     iteration #  7     ecut=    60.00 Ry     beta= 0.30
     Davidson diagonalization with overlap
     ethr =  2.91E-11,  avg # of iterations =  4.8

     negative rho (up, down):  0.000E+00 3.124E-03

     total cpu time spent up to now is    31292.4 secs

     total energy              =   -3488.70098033 Ry
     estimated scf accuracy    <       0.00000002 Ry

     total magnetization       =    32.00 Bohr mag/cell
     absolute magnetization    =    32.10 Bohr mag/cell

     iteration #  8     ecut=    60.00 Ry     beta= 0.30
     Davidson diagonalization with overlap
     ethr =  7.46E-12,  avg # of iterations =  4.4

     negative rho (up, down):  0.000E+00 3.124E-03

     total cpu time spent up to now is    31335.2 secs

     total energy              =   -3488.70098034 Ry
     estimated scf accuracy    <          2.1E-09 Ry

     total magnetization       =    32.00 Bohr mag/cell
     absolute magnetization    =    32.10 Bohr mag/cell

     iteration #  9     ecut=    60.00 Ry     beta= 0.30
     Davidson diagonalization with overlap
     ethr =  8.92E-13,  avg # of iterations =  5.6

     negative rho (up, down):  0.000E+00 3.124E-03

     total cpu time spent up to now is    31401.1 secs

     total energy              =   -3488.70098034 Ry
     estimated scf accuracy    <          1.3E-09 Ry

     total magnetization       =    32.00 Bohr mag/cell
     absolute magnetization    =    32.10 Bohr mag/cell

     iteration # 10     ecut=    60.00 Ry     beta= 0.30
     Davidson diagonalization with overlap
     ethr =  5.60E-13,  avg # of iterations =  2.0

     negative rho (up, down):  0.000E+00 3.124E-03

     Magnetic moment per site:
     atom:    1    charge:   13.3638    magn:    3.3189    constr:    0.0000
     atom:    2    charge:   13.3638    magn:    3.3189    constr:    0.0000
     atom:    3    charge:   13.3638    magn:    3.3189    constr:    0.0000
     atom:    4    charge:   13.3638    magn:    3.3189    constr:    0.0000
     atom:    5    charge:   13.3278    magn:    3.4142    constr:    0.0000
     atom:    6    charge:   13.3278    magn:    3.4142    constr:    0.0000
     atom:    7    charge:   13.3278    magn:    3.4142    constr:    0.0000
     atom:    8    charge:   13.3278    magn:    3.4142    constr:    0.0000
     atom:    9    charge:    0.3879    magn:    0.0043    constr:    0.0000
     atom:   10    charge:    0.3879    magn:    0.0043    constr:    0.0000
     atom:   11    charge:    0.3879    magn:    0.0043    constr:    0.0000
     atom:   12    charge:    0.3879    magn:    0.0043    constr:    0.0000
     atom:   13    charge:    4.0295    magn:    0.1039    constr:    0.0000
     atom:   14    charge:    4.0295    magn:    0.1039    constr:    0.0000
     atom:   15    charge:    4.0295    magn:    0.1039    constr:    0.0000
     atom:   16    charge:    4.0295    magn:    0.1039    constr:    0.0000
     atom:   17    charge:    4.0232    magn:    0.1180    constr:    0.0000
     atom:   18    charge:    4.0232    magn:    0.1180    constr:    0.0000
     atom:   19    charge:    4.0232    magn:    0.1180    constr:    0.0000
     atom:   20    charge:    4.0232    magn:    0.1180    constr:    0.0000
     atom:   21    charge:    4.0207    magn:    0.1200    constr:    0.0000
     atom:   22    charge:    4.0207    magn:    0.1200    constr:    0.0000
     atom:   23    charge:    4.0207    magn:    0.1200    constr:    0.0000
     atom:   24    charge:    4.0207    magn:    0.1200    constr:    0.0000
     atom:   25    charge:    4.0207    magn:    0.1200    constr:    0.0000
     atom:   26    charge:    4.0207    magn:    0.1200    constr:    0.0000
     atom:   27    charge:    4.0207    magn:    0.1200    constr:    0.0000
     atom:   28    charge:    4.0207    magn:    0.1200    constr:    0.0000

     total cpu time spent up to now is    31442.5 secs

     End of self-consistent calculation

 ------ SPIN UP ------------


          k = 0.0000 0.0000 0.0000 ( 15339 PWs)   bands (ev):

   -79.3398 -79.3398 -79.3398 -79.3397 -79.1202 -79.1202 -79.1183 -79.1183
   -46.0111 -46.0111 -46.0098 -46.0098 -45.6247 -45.6247 -45.6188 -45.6188
   -45.2800 -45.2799 -45.2797 -45.2797 -45.0798 -45.0797 -45.0774 -45.0773
   -44.8618 -44.8618 -44.8610 -44.8609 -44.8513 -44.8512 -44.8234 -44.8234
   -11.3629 -11.1383 -10.9074 -10.7522  -9.7601  -9.7266  -9.7182  -9.6654
    -9.6448  -9.5332  -9.4859  -9.4673  -9.4496  -9.4005  -9.3804  -9.3170
     1.0473   1.0709   1.5490   1.5636   1.6430   1.7096   2.3193   2.3222
     2.3239   2.8185   2.9365   2.9967   3.1171   3.5796   3.7269   3.7824
     3.9980   4.0620   4.0687   4.1296   4.2627   4.3540   4.3650   4.4250
     4.4303   4.5203   4.5359   4.5370   4.6194   4.6815   4.7278   4.7619
     4.8296   4.9456   4.9700   4.9954   5.1738   5.2071   5.3302   5.3578
     5.3914   5.6615   5.9815   6.0024   6.0181   6.1784   6.1806   6.3579
     6.7542   6.9960   7.0294   7.0450   7.1022   7.1419   7.1743   7.3119
     7.3606   7.3851   7.3925   7.5151   7.5330   7.5638   7.8195   7.8346
     7.8563   7.9821   8.0006   8.0377   8.0623   8.0749   8.0930   8.2022
     8.3294   8.3347   8.3427   8.3982   8.6005   8.7289   8.8775   8.9279
     8.9610   9.0252   9.2102   9.2453   9.2866   9.4084   9.4308   9.6107
    11.3639  13.3483  13.9157  15.2407  15.7787  16.2613  16.3249  16.3649

          k = 0.0000 0.0000-0.3923 ( 15392 PWs)   bands (ev):

   -79.3398 -79.3398 -79.3398 -79.3398 -79.1193 -79.1193 -79.1193 -79.1193
   -46.0105 -46.0105 -46.0105 -46.0105 -45.6217 -45.6217 -45.6217 -45.6217
   -45.2798 -45.2798 -45.2798 -45.2798 -45.0786 -45.0786 -45.0785 -45.0785
   -44.8614 -44.8614 -44.8614 -44.8614 -44.8375 -44.8375 -44.8374 -44.8374
   -11.0797 -11.0797 -10.9920 -10.9920  -9.7375  -9.7375  -9.7068  -9.7068
    -9.6604  -9.6604  -9.4760  -9.4760  -9.4123  -9.4123  -9.3177  -9.3177
     1.3256   1.3256   1.4051   1.4051   2.0634   2.0634   2.1349   2.1349
     2.7439   2.7439   3.2128   3.2128   3.4417   3.4417   3.6910   3.6910
     3.7412   3.7412   3.9793   3.9793   4.1483   4.1483   4.3548   4.3548
     4.4156   4.4156   4.5016   4.5016   4.7085   4.7085   4.7490   4.7490
     4.8391   4.8391   5.0403   5.0403   5.1151   5.1151   5.4607   5.4607
     5.6201   5.6201   5.6764   5.6764   5.8051   5.8051   5.9207   5.9207
     7.0504   7.0504   7.0541   7.0541   7.1889   7.1889   7.1976   7.1976
     7.4874   7.4874   7.5324   7.5324   7.5975   7.5975   7.7468   7.7468
     8.0115   8.0115   8.0326   8.0326   8.0929   8.0929   8.1419   8.1419
     8.4139   8.4139   8.5154   8.5154   8.7286   8.7286   8.7516   8.7516
     8.8793   8.8793   8.8976   8.8976   9.1913   9.1913   9.4442   9.4442
    13.2844  13.2844  14.4122  14.4122  15.1256  15.1256  16.6343  16.6344

          k =-0.4877 0.0000 0.0000 ( 15374 PWs)   bands (ev):

   -79.3398 -79.3398 -79.3398 -79.3398 -79.1202 -79.1202 -79.1183 -79.1183
   -46.0105 -46.0105 -46.0105 -46.0105 -45.6247 -45.6247 -45.6188 -45.6188
   -45.2798 -45.2798 -45.2798 -45.2798 -45.0797 -45.0797 -45.0773 -45.0773
   -44.8614 -44.8614 -44.8613 -44.8613 -44.8512 -44.8512 -44.8235 -44.8235
   -10.9802 -10.9802 -10.7134 -10.7134 -10.0885 -10.0885  -9.8656  -9.8656
    -9.5968  -9.5968  -9.4271  -9.4271  -9.4137  -9.4137  -9.3832  -9.3832
     1.1107   1.1107   1.2142   1.2142   2.6730   2.6730   2.7679   2.7679
     2.9854   2.9854   3.0162   3.0162   3.2774   3.2774   3.3370   3.3370
     3.5585   3.5585   3.5753   3.5753   3.7435   3.7435   4.2517   4.2517
     4.3587   4.3587   4.4214   4.4214   4.8340   4.8340   4.9054   4.9054
     4.9743   4.9743   5.1033   5.1033   5.2435   5.2435   5.5460   5.5460
     5.6292   5.6292   5.8014   5.8014   6.0048   6.0048   6.6755   6.6755
     6.9922   6.9922   7.0498   7.0498   7.1328   7.1328   7.2247   7.2247
     7.2852   7.2852   7.3235   7.3235   7.4759   7.4759   7.7568   7.7568
     7.8326   7.8326   8.0441   8.0441   8.1340   8.1340   8.1961   8.1961
     8.5127   8.5127   8.7277   8.7277   8.7376   8.7376   8.8413   8.8413
     8.9465   8.9465   9.0074   9.0074   9.1718   9.1718   9.3760   9.3760
    13.9367  13.9367  14.8075  14.8075  15.2096  15.2096  15.4924  15.4924

          k =-0.4877 0.0000-0.3923 ( 15436 PWs)   bands (ev):

   -79.3398 -79.3398 -79.3398 -79.3398 -79.1193 -79.1193 -79.1193 -79.1193
   -46.0106 -46.0106 -46.0105 -46.0105 -45.6217 -45.6217 -45.6217 -45.6217
   -45.2798 -45.2798 -45.2798 -45.2798 -45.0786 -45.0786 -45.0785 -45.0785
   -44.8614 -44.8614 -44.8614 -44.8614 -44.8374 -44.8374 -44.8374 -44.8374
   -10.8445 -10.8445 -10.8129 -10.8129  -9.9854  -9.9854  -9.9795  -9.9795
    -9.5882  -9.5882  -9.5210  -9.5210  -9.3897  -9.3897  -9.3774  -9.3774
     1.2702   1.2702   1.2749   1.2749   2.7256   2.7256   2.8943   2.8943
     3.0624   3.0624   3.1513   3.1513   3.1726   3.1726   3.3836   3.3836
     3.5198   3.5198   3.6299   3.6299   3.7392   3.7392   3.8476   3.8476
     4.2830   4.2830   4.5692   4.5692   4.9963   4.9963   5.0709   5.0709
     5.1565   5.1565   5.2475   5.2475   5.2616   5.2616   5.3060   5.3060
     5.5070   5.5070   5.5983   5.5983   5.8833   5.8833   6.0419   6.0419
     7.0282   7.0282   7.1303   7.1303   7.2652   7.2652   7.2753   7.2753
     7.3148   7.3148   7.4447   7.4447   7.6812   7.6812   7.7006   7.7006
     7.7810   7.7810   7.9197   7.9197   7.9834   7.9834   8.0871   8.0871
     8.4254   8.4254   8.4286   8.4286   8.4418   8.4418   8.8081   8.8081
     8.9753   8.9753   9.0356   9.0356   9.1623   9.1623   9.5751   9.5751
    14.9102  14.9102  14.9811  14.9811  15.7697  15.7988  15.7998  15.8440

 ------ SPIN DOWN ----------


          k = 0.0000 0.0000 0.0000 ( 15339 PWs)   bands (ev):

   -75.1161 -75.1161 -75.1159 -75.1158 -75.0419 -75.0417 -75.0397 -75.0397
   -41.4359 -41.4358 -41.4338 -41.4338 -41.3142 -41.3142 -41.3059 -41.3059
   -41.2558 -41.2555 -41.2550 -41.2550 -41.1861 -41.1857 -41.1823 -41.1822
   -41.1131 -41.1130 -41.0896 -41.0895 -41.0886 -41.0885 -41.0798 -41.0798
   -11.1473 -10.9261 -10.6940 -10.5416  -9.5401  -9.4982  -9.4871  -9.4355
    -9.4064  -9.2837  -9.2420  -9.2206  -9.1952  -9.1494  -9.1247  -9.0642
     1.3144   1.3243   1.7640   1.8477   1.9057   2.0738   2.6650   2.6823
     2.7570   3.2083   3.2801   3.3462   3.5070   4.0196   4.0485   4.0876
     4.4381   4.6008   4.7622   4.8137   4.8187   4.9285   4.9475   4.9483
     4.9914   5.1017   5.1458   5.1488   5.3516   5.3659   5.4727   5.4960
     5.5505   5.5759   5.6756   5.7051   5.7821   5.7970   5.8533   5.9631
     6.2037   6.3538   6.4332   6.4563   6.6419   6.6678   6.7258   6.9066
     9.8592   9.9086  10.2208  10.2259  10.3314  10.3633  10.4141  10.4331
    10.4410  10.5476  10.6227  10.8489  10.9281  10.9518  10.9668  10.9736
    11.0009  11.0644  11.0819  11.1877  11.1881  11.1944  11.3617  11.3711
    11.8554  11.8939  11.9240  11.9850  11.9871  12.1599  12.1991  12.2760
    12.3079  12.3121  12.3484  12.4317  12.4539  12.4696  12.5331  12.7750
    12.7811  13.9300  14.4263  15.6751  16.1365  16.7178  16.7508  16.7859

          k = 0.0000 0.0000-0.3923 ( 15392 PWs)   bands (ev):

   -75.1160 -75.1160 -75.1160 -75.1160 -75.0408 -75.0408 -75.0408 -75.0408
   -41.4349 -41.4349 -41.4349 -41.4349 -41.3100 -41.3100 -41.3099 -41.3099
   -41.2554 -41.2554 -41.2552 -41.2552 -41.1841 -41.1841 -41.1840 -41.1840
   -41.0969 -41.0969 -41.0967 -41.0967 -41.0891 -41.0891 -41.0889 -41.0889
   -10.8657 -10.8657 -10.7802 -10.7802  -9.5024  -9.5024  -9.4820  -9.4820
    -9.4206  -9.4206  -9.2284  -9.2284  -9.1604  -9.1604  -9.0658  -9.0658
     1.5831   1.5831   1.6513   1.6513   2.4369   2.4369   2.4837   2.4837
     3.1102   3.1102   3.5476   3.5476   3.8149   3.8149   4.0533   4.0533
     4.2573   4.2573   4.5400   4.5400   4.7694   4.7694   4.8660   4.8660
     4.9542   4.9542   5.1411   5.1411   5.3469   5.3469   5.3717   5.3717
     5.6262   5.6262   5.7538   5.7538   5.8338   5.8338   6.0412   6.0412
     6.0821   6.0821   6.1613   6.1613   6.5531   6.5531   6.6771   6.6771
    10.3030  10.3030  10.3316  10.3316  10.3968  10.3968  10.4054  10.4054
    10.6145  10.6145  10.7192  10.7192  10.8524  10.8524  10.8801  10.8801
    10.9773  10.9773  11.0101  11.0101  11.1994  11.1994  11.2942  11.2942
    11.7820  11.7820  11.9066  11.9066  12.1662  12.1662  12.1734  12.1734
    12.3296  12.3296  12.3709  12.3709  12.5537  12.5537  12.6243  12.6243
    13.9020  13.9020  14.9273  14.9273  15.6344  15.6344  16.9897  16.9897

          k =-0.4877 0.0000 0.0000 ( 15374 PWs)   bands (ev):

   -75.1161 -75.1161 -75.1159 -75.1159 -75.0419 -75.0419 -75.0397 -75.0397
   -41.4349 -41.4349 -41.4348 -41.4348 -41.3143 -41.3143 -41.3059 -41.3059
   -41.2554 -41.2554 -41.2552 -41.2552 -41.1860 -41.1860 -41.1822 -41.1822
   -41.1131 -41.1131 -41.0891 -41.0891 -41.0891 -41.0891 -41.0798 -41.0798
   -10.7683 -10.7683 -10.4940 -10.4940  -9.8647  -9.8647  -9.6433  -9.6433
    -9.3479  -9.3479  -9.1739  -9.1739  -9.1646  -9.1646  -9.1380  -9.1380
     1.4047   1.4047   1.4508   1.4508   3.0058   3.0058   3.0839   3.0839
     3.3994   3.3994   3.4154   3.4154   3.7018   3.7018   3.7732   3.7732
     3.9804   3.9804   4.0792   4.0792   4.1316   4.1316   4.6129   4.6129
     4.9730   4.9730   5.0897   5.0897   5.5450   5.5450   5.6703   5.6703
     5.8133   5.8133   5.8465   5.8465   6.0476   6.0476   6.1132   6.1132
     6.2925   6.2925   6.4447   6.4447   6.5601   6.5601   7.0730   7.0730
     9.8956   9.8956  10.1426  10.1426  10.3488  10.3488  10.4537  10.4537
    10.5767  10.5767  10.6983  10.6983  10.9938  10.9938  11.0069  11.0069
    11.0798  11.0798  11.1416  11.1416  11.1673  11.1673  11.4202  11.4202
    11.8896  11.8896  12.0039  12.0039  12.0537  12.0537  12.1679  12.1679
    12.2131  12.2131  12.4084  12.4084  12.4634  12.4634  12.6443  12.6443
    14.3841  14.3841  15.1509  15.1509  15.7879  15.7879  16.0832  16.0832

          k =-0.4877 0.0000-0.3923 ( 15436 PWs)   bands (ev):

   -75.1161 -75.1161 -75.1160 -75.1160 -75.0409 -75.0409 -75.0409 -75.0409
   -41.4349 -41.4349 -41.4349 -41.4349 -41.3100 -41.3100 -41.3099 -41.3099
   -41.2554 -41.2554 -41.2552 -41.2552 -41.1842 -41.1842 -41.1840 -41.1840
   -41.0969 -41.0969 -41.0967 -41.0967 -41.0891 -41.0891 -41.0889 -41.0889
   -10.6297 -10.6297 -10.5981 -10.5981  -9.7629  -9.7629  -9.7544  -9.7544
    -9.3396  -9.3396  -9.2726  -9.2726  -9.1381  -9.1381  -9.1300  -9.1300
     1.5375   1.5375   1.5675   1.5675   3.1196   3.1196   3.3021   3.3021
     3.4449   3.4449   3.5537   3.5537   3.5767   3.5767   3.7323   3.7323
     3.9823   3.9823   4.0326   4.0326   4.3035   4.3035   4.3387   4.3387
     4.7083   4.7083   5.0566   5.0566   5.5301   5.5301   5.5573   5.5573
     5.7843   5.7843   5.8807   5.8807   6.1524   6.1524   6.1878   6.1878
     6.2710   6.2710   6.3277   6.3277   6.4535   6.4535   6.6632   6.6632
    10.2261  10.2261  10.2442  10.2442  10.4143  10.4143  10.4392  10.4392
    10.6933  10.6933  10.7181  10.7181  10.8969  10.8969  10.8977  10.8977
    11.0342  11.0342  11.1036  11.1036  11.1529  11.1529  11.2185  11.2185
    11.7215  11.7215  11.7559  11.7559  11.9714  11.9714  12.0377  12.0377
    12.1877  12.1877  12.3245  12.3245  12.4985  12.4985  12.8066  12.8066
    15.3520  15.3520  15.5039  15.5039  16.2751  16.2751  16.2915  16.2915

     the Fermi energy is    10.5157 ev

!    total energy              =   -3488.70098034 Ry

     total all-electron energy =    -25094.006948 Ry
     estimated scf accuracy    <          9.0E-10 Ry
     smearing contrib. (-TS)   =      -0.01065275 Ry
     internal energy E=F+TS    =   -3488.69032759 Ry

     The total energy is F=E-TS. E is the sum of the following terms:
     one-electron contribution =   -1483.38753540 Ry
     hartree contribution      =     868.68805788 Ry
     xc contribution           =    -368.40365498 Ry
     ewald contribution        =   -1547.83196638 Ry
     one-center paw contrib.   =    -957.75522871 Ry

     total magnetization       =    32.00 Bohr mag/cell
     absolute magnetization    =    32.10 Bohr mag/cell

     convergence has been achieved in  10 iterations

     negative rho (up, down):  0.000E+00 3.124E-03

     Forces acting on atoms (cartesian axes, Ry/au):

     atom    1 type  1   force =     0.00000000    0.00000000   -0.00000000
     atom    2 type  1   force =     0.00000000    0.00000000   -0.00000000
     atom    3 type  1   force =     0.00000000    0.00000000    0.00000000
     atom    4 type  1   force =    -0.00000000   -0.00000000    0.00000000
     atom    5 type  1   force =    -0.00019965   -0.00017021    0.00000000
     atom    6 type  1   force =     0.00019965    0.00017021    0.00000000
     atom    7 type  1   force =    -0.00019965    0.00017021    0.00000000
     atom    8 type  1   force =     0.00019965   -0.00017021    0.00000000
     atom    9 type  2   force =    -0.00020149    0.00013756    0.00000000
     atom   10 type  2   force =     0.00020149   -0.00013756    0.00000000
     atom   11 type  2   force =    -0.00020149   -0.00013756    0.00000000
     atom   12 type  2   force =     0.00020149    0.00013756    0.00000000
     atom   13 type  3   force =    -0.00008149    0.00000702   -0.00000000
     atom   14 type  3   force =     0.00008149   -0.00000702    0.00000000
     atom   15 type  3   force =    -0.00008149   -0.00000702    0.00000000
     atom   16 type  3   force =     0.00008149    0.00000702    0.00000000
     atom   17 type  3   force =    -0.00003416    0.00007207   -0.00000000
     atom   18 type  3   force =     0.00003416   -0.00007207    0.00000000
     atom   19 type  3   force =    -0.00003416   -0.00007207    0.00000000
     atom   20 type  3   force =     0.00003416    0.00007207   -0.00000000
     atom   21 type  3   force =    -0.00001956   -0.00004758   -0.00024073
     atom   22 type  3   force =     0.00001956    0.00004758    0.00024073
     atom   23 type  3   force =    -0.00001956    0.00004758    0.00024073
     atom   24 type  3   force =     0.00001956   -0.00004758   -0.00024073
     atom   25 type  3   force =     0.00001956    0.00004758   -0.00024073
     atom   26 type  3   force =    -0.00001956   -0.00004758    0.00024073
     atom   27 type  3   force =     0.00001956   -0.00004758    0.00024073
     atom   28 type  3   force =    -0.00001956    0.00004758   -0.00024073

     Total force =     0.001025     Total SCF correction =     0.000032


     Computing stress (Cartesian axis) and pressure


     negative rho (up, down):  0.000E+00 3.124E-03
          total   stress  (Ry/bohr**3)                   (kbar)     P=        0.00
   0.00000139   0.00000000   0.00000000            0.20        0.00        0.00
   0.00000000  -0.00000016   0.00000000            0.00       -0.02        0.00
   0.00000000   0.00000000  -0.00000116            0.00        0.00       -0.17

     Energy error            =      2.2E-06
     Gradient error          =      2.4E-04
     Cell gradient error     =      1.4E-06


     number of scf cycles    =  22
     number of bfgs steps    =  21

     enthalpy old            =   -3488.7009781871 Ry
     enthalpy new            =   -3488.7009803440 Ry

     CASE: enthalpy_new < enthalpy_old

     new trust radius        =       0.0016063096 bohr
     new conv_thr            =       0.0000000010 Ry

     new unit-cell volume =   2092.05677 a.u.^3 (   310.01083 Ang^3 )
     density =      4.36591 g/cm^3

CELL_PARAMETERS (angstrom)
   4.874204923   0.000000000   0.000000000
   0.000000000  10.495518993   0.000000000
   0.000000000   0.000000000   6.059951681

ATOMIC_POSITIONS (angstrom)
Fe            0.0000000000       -0.0000000000       -0.0000000000
Fe            2.4371024613        5.2477594963        0.0000000000
Fe           -0.0000000000        0.0000000000        3.0299758406
Fe            2.4371024613        5.2477594963        3.0299758406
Fe            0.0937791621        2.9290312040        4.5449637609
Fe            4.7804257605        7.5664877886        1.5149879203
Fe            2.5308816234        2.3187282923        1.5149879203
Fe            2.3433232992        8.1767907003        4.5449637609
Si            0.3445839162        4.2317346266        1.5149879203
Si            4.5296210064        6.2637843660        4.5449637609
Si            2.7816863775        1.0160248697        4.5449637609
Si            2.0925185451        9.4794941229        1.5149879203
O             1.1435790064        0.9919714360        4.5449637609
O             3.7306259162        9.5035475566        1.5149879203
O             3.5806814677        4.2557880603        1.5149879203
O             1.2935234549        6.2397309323        4.5449637609
O             1.4469606000        0.5207535232        1.5149879203
O             3.4272443226        9.9747654694        4.5449637609
O             3.8840630613        4.7270059731        4.5449637609
O             0.9901418613        5.7685130195        1.5149879203
O             1.0457063528        3.5029178379        2.8229765949
O             3.8284985697        6.9926011547        3.2369750863
O             3.4828088141        1.7448416584        3.2369750863
O             1.3913961085        8.7506773342        2.8229765949
O             3.8284985697        6.9926011547        5.8529524355
O             1.0457063528        3.5029178379        0.2069992457
O             1.3913961085        8.7506773342        0.2069992457
O             3.4828088141        1.7448416584        5.8529524355



     Writing output data file ./out/oliv.save/
     NEW-OLD atomic charge density approx. for the potential

     Check: negative core charge=   -0.000002

     negative rho (up, down):  0.000E+00 3.141E-03
     extrapolated charge  240.00467, renormalised to  240.00000
     Generating pointlists ...

     total cpu time spent up to now is    31488.2 secs

     Self-consistent Calculation

     iteration #  1     ecut=    60.00 Ry     beta= 0.30
     Davidson diagonalization with overlap
     ethr =  1.00E-06,  avg # of iterations =  3.5

     Threshold (ethr) on eigenvalues was too large:
     Diagonalizing with lowered threshold

     Davidson diagonalization with overlap
     ethr =  3.68E-09,  avg # of iterations =  8.1

     negative rho (up, down):  0.000E+00 3.142E-03

     total cpu time spent up to now is    31625.8 secs

     total energy              =   -3488.70097706 Ry
     estimated scf accuracy    <       0.00000885 Ry

     total magnetization       =    32.00 Bohr mag/cell
     absolute magnetization    =    32.10 Bohr mag/cell

     iteration #  2     ecut=    60.00 Ry     beta= 0.30
     Davidson diagonalization with overlap
     ethr =  3.69E-09,  avg # of iterations =  3.6

     negative rho (up, down):  0.000E+00 3.142E-03

     total cpu time spent up to now is    31665.0 secs

     total energy              =   -3488.70097656 Ry
     estimated scf accuracy    <       0.00007191 Ry

     total magnetization       =    32.00 Bohr mag/cell
     absolute magnetization    =    32.10 Bohr mag/cell

     iteration #  3     ecut=    60.00 Ry     beta= 0.30
     Davidson diagonalization with overlap
     ethr =  3.69E-09,  avg # of iterations =  1.5

     negative rho (up, down):  0.000E+00 3.142E-03

     total cpu time spent up to now is    31697.2 secs

     total energy              =   -3488.70097963 Ry
     estimated scf accuracy    <       0.00001243 Ry

     total magnetization       =    32.00 Bohr mag/cell
     absolute magnetization    =    32.10 Bohr mag/cell

     iteration #  4     ecut=    60.00 Ry     beta= 0.30
     Davidson diagonalization with overlap
     ethr =  3.69E-09,  avg # of iterations =  1.6

     negative rho (up, down):  0.000E+00 3.143E-03

     total cpu time spent up to now is    31733.0 secs

     total energy              =   -3488.70098136 Ry
     estimated scf accuracy    <       0.00000188 Ry

     total magnetization       =    32.00 Bohr mag/cell
     absolute magnetization    =    32.10 Bohr mag/cell

     iteration #  5     ecut=    60.00 Ry     beta= 0.30
     Davidson diagonalization with overlap
     ethr =  7.83E-10,  avg # of iterations =  2.5

     negative rho (up, down):  0.000E+00 3.143E-03

     total cpu time spent up to now is    31777.8 secs

     total energy              =   -3488.70098229 Ry
     estimated scf accuracy    <       0.00000061 Ry

     total magnetization       =    32.00 Bohr mag/cell
     absolute magnetization    =    32.10 Bohr mag/cell

     iteration #  6     ecut=    60.00 Ry     beta= 0.30
     Davidson diagonalization with overlap
     ethr =  2.53E-10,  avg # of iterations =  2.0

     negative rho (up, down):  0.000E+00 3.144E-03

     total cpu time spent up to now is    31823.4 secs

     total energy              =   -3488.70098258 Ry
     estimated scf accuracy    <       0.00000022 Ry

     total magnetization       =    32.00 Bohr mag/cell
     absolute magnetization    =    32.10 Bohr mag/cell

     iteration #  7     ecut=    60.00 Ry     beta= 0.30
     Davidson diagonalization with overlap
     ethr =  8.99E-11,  avg # of iterations =  4.1

     negative rho (up, down):  0.000E+00 3.144E-03

     total cpu time spent up to now is    31877.6 secs

     total energy              =   -3488.70098262 Ry
     estimated scf accuracy    <       0.00000050 Ry

     total magnetization       =    32.00 Bohr mag/cell
     absolute magnetization    =    32.10 Bohr mag/cell

     iteration #  8     ecut=    60.00 Ry     beta= 0.30
     Davidson diagonalization with overlap
     ethr =  8.99E-11,  avg # of iterations =  2.0

     negative rho (up, down):  0.000E+00 3.144E-03

     total cpu time spent up to now is    31916.5 secs

     total energy              =   -3488.70098262 Ry
     estimated scf accuracy    <       0.00000008 Ry

     total magnetization       =    32.00 Bohr mag/cell
     absolute magnetization    =    32.10 Bohr mag/cell

     iteration #  9     ecut=    60.00 Ry     beta= 0.30
     Davidson diagonalization with overlap
     ethr =  3.43E-11,  avg # of iterations =  5.1

     negative rho (up, down):  0.000E+00 3.144E-03

     total cpu time spent up to now is    31968.9 secs

     total energy              =   -3488.70098265 Ry
     estimated scf accuracy    <       0.00000005 Ry

     total magnetization       =    32.00 Bohr mag/cell
     absolute magnetization    =    32.10 Bohr mag/cell

     iteration # 10     ecut=    60.00 Ry     beta= 0.30
     Davidson diagonalization with overlap
     ethr =  2.02E-11,  avg # of iterations =  2.0

     negative rho (up, down):  0.000E+00 3.144E-03

     total cpu time spent up to now is    32009.4 secs

     total energy              =   -3488.70098264 Ry
     estimated scf accuracy    <       0.00000002 Ry

     total magnetization       =    32.00 Bohr mag/cell
     absolute magnetization    =    32.10 Bohr mag/cell

     iteration # 11     ecut=    60.00 Ry     beta= 0.30
     Davidson diagonalization with overlap
     ethr =  6.57E-12,  avg # of iterations =  4.4

     negative rho (up, down):  0.000E+00 3.144E-03

     total cpu time spent up to now is    32056.6 secs

     total energy              =   -3488.70098265 Ry
     estimated scf accuracy    <          1.7E-09 Ry

     total magnetization       =    32.00 Bohr mag/cell
     absolute magnetization    =    32.10 Bohr mag/cell

     iteration # 12     ecut=    60.00 Ry     beta= 0.30
     Davidson diagonalization with overlap
     ethr =  7.17E-13,  avg # of iterations =  5.2

     negative rho (up, down):  0.000E+00 3.144E-03

     Magnetic moment per site:
     atom:    1    charge:   13.3638    magn:    3.3187    constr:    0.0000
     atom:    2    charge:   13.3638    magn:    3.3187    constr:    0.0000
     atom:    3    charge:   13.3638    magn:    3.3187    constr:    0.0000
     atom:    4    charge:   13.3638    magn:    3.3187    constr:    0.0000
     atom:    5    charge:   13.3278    magn:    3.4143    constr:    0.0000
     atom:    6    charge:   13.3278    magn:    3.4143    constr:    0.0000
     atom:    7    charge:   13.3278    magn:    3.4143    constr:    0.0000
     atom:    8    charge:   13.3278    magn:    3.4143    constr:    0.0000
     atom:    9    charge:    0.3879    magn:    0.0043    constr:    0.0000
     atom:   10    charge:    0.3879    magn:    0.0043    constr:    0.0000
     atom:   11    charge:    0.3879    magn:    0.0043    constr:    0.0000
     atom:   12    charge:    0.3879    magn:    0.0043    constr:    0.0000
     atom:   13    charge:    4.0295    magn:    0.1039    constr:    0.0000
     atom:   14    charge:    4.0295    magn:    0.1039    constr:    0.0000
     atom:   15    charge:    4.0295    magn:    0.1039    constr:    0.0000
     atom:   16    charge:    4.0295    magn:    0.1039    constr:    0.0000
     atom:   17    charge:    4.0232    magn:    0.1179    constr:    0.0000
     atom:   18    charge:    4.0232    magn:    0.1179    constr:    0.0000
     atom:   19    charge:    4.0232    magn:    0.1179    constr:    0.0000
     atom:   20    charge:    4.0232    magn:    0.1179    constr:    0.0000
     atom:   21    charge:    4.0207    magn:    0.1200    constr:    0.0000
     atom:   22    charge:    4.0207    magn:    0.1200    constr:    0.0000
     atom:   23    charge:    4.0207    magn:    0.1200    constr:    0.0000
     atom:   24    charge:    4.0207    magn:    0.1200    constr:    0.0000
     atom:   25    charge:    4.0207    magn:    0.1200    constr:    0.0000
     atom:   26    charge:    4.0207    magn:    0.1200    constr:    0.0000
     atom:   27    charge:    4.0207    magn:    0.1200    constr:    0.0000
     atom:   28    charge:    4.0207    magn:    0.1200    constr:    0.0000

     total cpu time spent up to now is    32114.1 secs

     End of self-consistent calculation

 ------ SPIN UP ------------


          k = 0.0000 0.0000 0.0000 ( 15339 PWs)   bands (ev):

   -79.3408 -79.3408 -79.3408 -79.3408 -79.1203 -79.1202 -79.1184 -79.1184
   -46.0120 -46.0119 -46.0107 -46.0107 -45.6247 -45.6247 -45.6188 -45.6188
   -45.2808 -45.2808 -45.2806 -45.2805 -45.0798 -45.0797 -45.0774 -45.0773
   -44.8631 -44.8631 -44.8623 -44.8623 -44.8515 -44.8515 -44.8237 -44.8237
   -11.3631 -11.1385 -10.9075 -10.7525  -9.7608  -9.7274  -9.7189  -9.6661
    -9.6452  -9.5329  -9.4863  -9.4670  -9.4498  -9.4007  -9.3800  -9.3167
     1.0471   1.0702   1.5486   1.5634   1.6424   1.7094   2.3189   2.3219
     2.3238   2.8184   2.9364   2.9963   3.1166   3.5795   3.7262   3.7821
     3.9974   4.0615   4.0687   4.1292   4.2632   4.3547   4.3645   4.4247
     4.4293   4.5197   4.5360   4.5367   4.6188   4.6810   4.7272   4.7602
     4.8295   4.9455   4.9708   4.9954   5.1742   5.2065   5.3308   5.3581
     5.3909   5.6606   5.9823   6.0015   6.0182   6.1783   6.1802   6.3589
     6.7535   6.9959   7.0291   7.0447   7.1014   7.1413   7.1742   7.3117
     7.3600   7.3851   7.3922   7.5140   7.5321   7.5631   7.8191   7.8342
     7.8559   7.9812   8.0000   8.0368   8.0616   8.0744   8.0928   8.2012
     8.3283   8.3338   8.3426   8.3977   8.5997   8.7283   8.8771   8.9270
     8.9605   9.0251   9.2096   9.2449   9.2863   9.4075   9.4304   9.6095
    11.3635  13.3474  13.9163  15.2400  15.7773  16.2607  16.3252  16.3638

          k = 0.0000 0.0000-0.3923 ( 15392 PWs)   bands (ev):

   -79.3408 -79.3408 -79.3408 -79.3408 -79.1193 -79.1193 -79.1193 -79.1193
   -46.0114 -46.0114 -46.0114 -46.0114 -45.6218 -45.6218 -45.6217 -45.6217
   -45.2807 -45.2807 -45.2807 -45.2807 -45.0785 -45.0785 -45.0785 -45.0785
   -44.8627 -44.8627 -44.8627 -44.8627 -44.8377 -44.8377 -44.8377 -44.8377
   -11.0800 -11.0800 -10.9922 -10.9922  -9.7382  -9.7382  -9.7075  -9.7075
    -9.6605  -9.6605  -9.4761  -9.4761  -9.4121  -9.4121  -9.3175  -9.3175
     1.3249   1.3249   1.4047   1.4047   2.0630   2.0630   2.1346   2.1346
     2.7439   2.7439   3.2125   3.2125   3.4414   3.4414   3.6908   3.6908
     3.7405   3.7405   3.9788   3.9788   4.1481   4.1481   4.3547   4.3547
     4.4153   4.4153   4.5015   4.5015   4.7085   4.7085   4.7488   4.7488
     4.8384   4.8384   5.0398   5.0398   5.1151   5.1151   5.4603   5.4603
     5.6203   5.6203   5.6765   5.6765   5.8047   5.8047   5.9210   5.9210
     7.0497   7.0497   7.0537   7.0537   7.1884   7.1884   7.1974   7.1974
     7.4869   7.4869   7.5315   7.5315   7.5974   7.5974   7.7463   7.7463
     8.0112   8.0112   8.0320   8.0320   8.0923   8.0923   8.1409   8.1409
     8.4133   8.4133   8.5149   8.5149   8.7277   8.7277   8.7518   8.7518
     8.8790   8.8790   8.8967   8.8967   9.1906   9.1906   9.4436   9.4436
    13.2839  13.2839  14.4117  14.4117  15.1256  15.1256  16.6341  16.6342

          k =-0.4877 0.0000 0.0000 ( 15374 PWs)   bands (ev):

   -79.3408 -79.3408 -79.3408 -79.3408 -79.1203 -79.1203 -79.1184 -79.1184
   -46.0113 -46.0113 -46.0113 -46.0113 -45.6248 -45.6248 -45.6188 -45.6188
   -45.2807 -45.2807 -45.2806 -45.2806 -45.0797 -45.0797 -45.0773 -45.0773
   -44.8628 -44.8628 -44.8627 -44.8627 -44.8515 -44.8515 -44.8237 -44.8237
   -10.9805 -10.9805 -10.7133 -10.7133 -10.0894 -10.0894  -9.8662  -9.8662
    -9.5973  -9.5973  -9.4267  -9.4267  -9.4135  -9.4135  -9.3835  -9.3835
     1.1103   1.1103   1.2137   1.2137   2.6728   2.6728   2.7673   2.7673
     2.9845   2.9845   3.0160   3.0160   3.2766   3.2766   3.3368   3.3368
     3.5582   3.5582   3.5755   3.5755   3.7437   3.7437   4.2516   4.2516
     4.3582   4.3582   4.4211   4.4211   4.8335   4.8335   4.9053   4.9053
     4.9743   4.9743   5.1042   5.1042   5.2431   5.2431   5.5459   5.5459
     5.6294   5.6294   5.8006   5.8006   6.0042   6.0042   6.6754   6.6754
     6.9916   6.9916   7.0494   7.0494   7.1321   7.1321   7.2242   7.2242
     7.2848   7.2848   7.3229   7.3229   7.4754   7.4754   7.7564   7.7564
     7.8321   7.8321   8.0432   8.0432   8.1335   8.1335   8.1953   8.1953
     8.5119   8.5119   8.7272   8.7272   8.7370   8.7370   8.8406   8.8406
     8.9460   8.9460   9.0072   9.0072   9.1705   9.1705   9.3754   9.3754
    13.9367  13.9367  14.8074  14.8074  15.2085  15.2085  15.4923  15.4923

          k =-0.4877 0.0000-0.3923 ( 15436 PWs)   bands (ev):

   -79.3409 -79.3409 -79.3408 -79.3408 -79.1194 -79.1194 -79.1194 -79.1194
   -46.0114 -46.0114 -46.0114 -46.0114 -45.6218 -45.6218 -45.6217 -45.6217
   -45.2807 -45.2807 -45.2806 -45.2806 -45.0785 -45.0785 -45.0785 -45.0785
   -44.8627 -44.8627 -44.8627 -44.8627 -44.8377 -44.8377 -44.8377 -44.8377
   -10.8447 -10.8447 -10.8131 -10.8131  -9.9862  -9.9862  -9.9801  -9.9801
    -9.5887  -9.5887  -9.5210  -9.5210  -9.3896  -9.3896  -9.3771  -9.3771
     1.2697   1.2697   1.2745   1.2745   2.7253   2.7253   2.8940   2.8940
     3.0620   3.0620   3.1507   3.1507   3.1718   3.1718   3.3833   3.3833
     3.5198   3.5198   3.6298   3.6298   3.7393   3.7393   3.8470   3.8470
     4.2828   4.2828   4.5693   4.5693   4.9963   4.9963   5.0701   5.0701
     5.1569   5.1569   5.2475   5.2475   5.2617   5.2617   5.3055   5.3055
     5.5070   5.5070   5.5980   5.5980   5.8827   5.8827   6.0417   6.0417
     7.0275   7.0275   7.1298   7.1298   7.2649   7.2649   7.2753   7.2753
     7.3140   7.3140   7.4440   7.4440   7.6808   7.6808   7.7000   7.7000
     7.7806   7.7806   7.9189   7.9189   7.9828   7.9828   8.0866   8.0866
     8.4248   8.4248   8.4280   8.4280   8.4416   8.4416   8.8079   8.8079
     8.9740   8.9740   9.0347   9.0347   9.1618   9.1618   9.5748   9.5748
    14.9102  14.9102  14.9803  14.9803  15.7688  15.7985  15.7995  15.8434

 ------ SPIN DOWN ----------


          k = 0.0000 0.0000 0.0000 ( 15339 PWs)   bands (ev):

   -75.1169 -75.1169 -75.1167 -75.1166 -75.0422 -75.0420 -75.0400 -75.0400
   -41.4366 -41.4365 -41.4345 -41.4345 -41.3144 -41.3144 -41.3061 -41.3061
   -41.2566 -41.2563 -41.2558 -41.2558 -41.1865 -41.1861 -41.1827 -41.1826
   -41.1134 -41.1133 -41.0905 -41.0904 -41.0895 -41.0894 -41.0801 -41.0801
   -11.1475 -10.9264 -10.6940 -10.5418  -9.5408  -9.4989  -9.4879  -9.4362
    -9.4068  -9.2834  -9.2424  -9.2202  -9.1954  -9.1495  -9.1244  -9.0638
     1.3144   1.3236   1.7637   1.8471   1.9054   2.0735   2.6650   2.6821
     2.7566   3.2081   3.2798   3.3461   3.5063   4.0195   4.0479   4.0874
     4.4377   4.6003   4.7618   4.8145   4.8178   4.9278   4.9474   4.9478
     4.9918   5.1019   5.1454   5.1475   5.3504   5.3657   5.4719   5.4959
     5.5509   5.5764   5.6746   5.7052   5.7813   5.7971   5.8536   5.9632
     6.2035   6.3533   6.4334   6.4570   6.6415   6.6671   6.7264   6.9074
     9.8593   9.9085  10.2205  10.2251  10.3302  10.3627  10.4137  10.4330
    10.4404  10.5471  10.6220  10.8479  10.9274  10.9509  10.9661  10.9730
    11.0002  11.0640  11.0811  11.1874  11.1874  11.1935  11.3615  11.3708
    11.8543  11.8929  11.9230  11.9845  11.9864  12.1598  12.1981  12.2756
    12.3075  12.3116  12.3483  12.4311  12.4534  12.4691  12.5322  12.7742
    12.7806  13.9291  14.4272  15.6744  16.1349  16.7185  16.7499  16.7855

          k = 0.0000 0.0000-0.3923 ( 15392 PWs)   bands (ev):

   -75.1169 -75.1169 -75.1168 -75.1168 -75.0411 -75.0411 -75.0411 -75.0411
   -41.4357 -41.4357 -41.4356 -41.4356 -41.3102 -41.3102 -41.3102 -41.3102
   -41.2562 -41.2562 -41.2560 -41.2560 -41.1845 -41.1845 -41.1844 -41.1844
   -41.0972 -41.0972 -41.0970 -41.0970 -41.0900 -41.0900 -41.0898 -41.0898
   -10.8660 -10.8660 -10.7804 -10.7804  -9.5031  -9.5031  -9.4827  -9.4827
    -9.4207  -9.4207  -9.2285  -9.2285  -9.1602  -9.1602  -9.0657  -9.0657
     1.5824   1.5824   1.6510   1.6510   2.4365   2.4365   2.4833   2.4833
     3.1102   3.1102   3.5474   3.5474   3.8146   3.8146   4.0532   4.0532
     4.2566   4.2566   4.5396   4.5396   4.7693   4.7693   4.8662   4.8662
     4.9541   4.9541   5.1403   5.1403   5.3457   5.3457   5.3717   5.3717
     5.6260   5.6260   5.7527   5.7527   5.8343   5.8343   6.0411   6.0411
     6.0823   6.0823   6.1614   6.1614   6.5531   6.5531   6.6777   6.6777
    10.3025  10.3025  10.3311  10.3311  10.3962  10.3962  10.4049  10.4049
    10.6136  10.6136  10.7189  10.7189  10.8514  10.8514  10.8799  10.8799
    10.9765  10.9765  11.0099  11.0099  11.1987  11.1987  11.2936  11.2936
    11.7815  11.7815  11.9058  11.9058  12.1659  12.1659  12.1724  12.1724
    12.3292  12.3292  12.3702  12.3702  12.5530  12.5530  12.6239  12.6239
    13.9015  13.9015  14.9268  14.9268  15.6346  15.6346  16.9897  16.9897

          k =-0.4877 0.0000 0.0000 ( 15374 PWs)   bands (ev):

   -75.1169 -75.1169 -75.1167 -75.1167 -75.0422 -75.0422 -75.0400 -75.0400
   -41.4356 -41.4356 -41.4356 -41.4356 -41.3145 -41.3145 -41.3061 -41.3061
   -41.2562 -41.2562 -41.2559 -41.2559 -41.1864 -41.1864 -41.1827 -41.1827
   -41.1134 -41.1134 -41.0900 -41.0900 -41.0900 -41.0900 -41.0801 -41.0801
   -10.7686 -10.7686 -10.4940 -10.4940  -9.8655  -9.8655  -9.6439  -9.6439
    -9.3484  -9.3484  -9.1735  -9.1735  -9.1643  -9.1643  -9.1383  -9.1383
     1.4044   1.4044   1.4503   1.4503   3.0056   3.0056   3.0833   3.0833
     3.3987   3.3987   3.4151   3.4151   3.7011   3.7011   3.7726   3.7726
     3.9803   3.9803   4.0793   4.0793   4.1315   4.1315   4.6130   4.6130
     4.9729   4.9729   5.0894   5.0894   5.5450   5.5450   5.6700   5.6700
     5.8123   5.8123   5.8467   5.8467   6.0478   6.0478   6.1132   6.1132
     6.2928   6.2928   6.4441   6.4441   6.5596   6.5596   7.0731   7.0731
     9.8953   9.8953  10.1425  10.1425  10.3484  10.3484  10.4531  10.4531
    10.5760  10.5760  10.6972  10.6972  10.9932  10.9932  11.0063  11.0063
    11.0789  11.0789  11.1412  11.1412  11.1668  11.1668  11.4198  11.4198
    11.8888  11.8888  12.0031  12.0031  12.0529  12.0529  12.1675  12.1675
    12.2126  12.2126  12.4081  12.4081  12.4623  12.4623  12.6438  12.6438
    14.3845  14.3845  15.1506  15.1506  15.7872  15.7872  16.0835  16.0835

          k =-0.4877 0.0000-0.3923 ( 15436 PWs)   bands (ev):

   -75.1169 -75.1169 -75.1169 -75.1169 -75.0412 -75.0412 -75.0412 -75.0412
   -41.4357 -41.4357 -41.4356 -41.4356 -41.3103 -41.3103 -41.3102 -41.3102
   -41.2562 -41.2562 -41.2559 -41.2559 -41.1846 -41.1846 -41.1844 -41.1844
   -41.0972 -41.0972 -41.0970 -41.0970 -41.0900 -41.0900 -41.0897 -41.0897
   -10.6299 -10.6299 -10.5983 -10.5983  -9.7637  -9.7637  -9.7549  -9.7549
    -9.3400  -9.3400  -9.2725  -9.2725  -9.1380  -9.1380  -9.1297  -9.1297
     1.5370   1.5370   1.5670   1.5670   3.1195   3.1195   3.3020   3.3020
     3.4444   3.4444   3.5530   3.5530   3.5761   3.5761   3.7318   3.7318
     3.9824   3.9824   4.0324   4.0324   4.3038   4.3038   4.3383   4.3383
     4.7079   4.7079   5.0567   5.0567   5.5301   5.5301   5.5571   5.5571
     5.7837   5.7837   5.8803   5.8803   6.1521   6.1521   6.1877   6.1877
     6.2712   6.2712   6.3272   6.3272   6.4537   6.4537   6.6636   6.6636
    10.2253  10.2253  10.2436  10.2436  10.4138  10.4138  10.4388  10.4388
    10.6928  10.6928  10.7172  10.7172  10.8966  10.8966  10.8970  10.8970
    11.0337  11.0337  11.1032  11.1032  11.1522  11.1522  11.2179  11.2179
    11.7207  11.7207  11.7552  11.7552  11.9712  11.9712  12.0373  12.0373
    12.1866  12.1866  12.3239  12.3239  12.4979  12.4979  12.8061  12.8061
    15.3524  15.3524  15.5037  15.5037  16.2746  16.2746  16.2904  16.2904

     the Fermi energy is    10.5151 ev

!    total energy              =   -3488.70098265 Ry

     total all-electron energy =    -25094.006950 Ry
     estimated scf accuracy    <          7.2E-10 Ry
     smearing contrib. (-TS)   =      -0.01066542 Ry
     internal energy E=F+TS    =   -3488.69031723 Ry

     The total energy is F=E-TS. E is the sum of the following terms:
     one-electron contribution =   -1483.39549064 Ry
     hartree contribution      =     868.68852472 Ry
     xc contribution           =    -368.40328636 Ry
     ewald contribution        =   -1547.82484520 Ry
     one-center paw contrib.   =    -957.75521975 Ry

     total magnetization       =    32.00 Bohr mag/cell
     absolute magnetization    =    32.10 Bohr mag/cell

     convergence has been achieved in  12 iterations

     negative rho (up, down):  0.000E+00 3.144E-03

     Forces acting on atoms (cartesian axes, Ry/au):

     atom    1 type  1   force =     0.00000000    0.00000000   -0.00000000
     atom    2 type  1   force =     0.00000000    0.00000000    0.00000000
     atom    3 type  1   force =     0.00000000    0.00000000    0.00000000
     atom    4 type  1   force =    -0.00000000    0.00000000    0.00000000
     atom    5 type  1   force =    -0.00015394   -0.00010415    0.00000000
     atom    6 type  1   force =     0.00015394    0.00010415    0.00000000
     atom    7 type  1   force =    -0.00015394    0.00010415    0.00000000
     atom    8 type  1   force =     0.00015394   -0.00010415    0.00000000
     atom    9 type  2   force =    -0.00027092    0.00009465   -0.00000000
     atom   10 type  2   force =     0.00027092   -0.00009465    0.00000000
     atom   11 type  2   force =    -0.00027092   -0.00009465    0.00000000
     atom   12 type  2   force =     0.00027092    0.00009465   -0.00000000
     atom   13 type  3   force =    -0.00005740   -0.00007596    0.00000000
     atom   14 type  3   force =     0.00005740    0.00007596    0.00000000
     atom   15 type  3   force =    -0.00005740    0.00007596    0.00000000
     atom   16 type  3   force =     0.00005740   -0.00007596    0.00000000
     atom   17 type  3   force =    -0.00005214   -0.00002701    0.00000000
     atom   18 type  3   force =     0.00005214    0.00002701    0.00000000
     atom   19 type  3   force =    -0.00005214    0.00002701    0.00000000
     atom   20 type  3   force =     0.00005214   -0.00002701    0.00000000
     atom   21 type  3   force =     0.00007341   -0.00002621   -0.00018511
     atom   22 type  3   force =    -0.00007341    0.00002621    0.00018511
     atom   23 type  3   force =     0.00007341    0.00002621    0.00018511
     atom   24 type  3   force =    -0.00007341   -0.00002621   -0.00018511
     atom   25 type  3   force =    -0.00007341    0.00002621   -0.00018511
     atom   26 type  3   force =     0.00007341   -0.00002621    0.00018511
     atom   27 type  3   force =    -0.00007341   -0.00002621    0.00018511
     atom   28 type  3   force =     0.00007341    0.00002621   -0.00018511

     Total force =     0.000917     Total SCF correction =     0.000046


     Computing stress (Cartesian axis) and pressure


     negative rho (up, down):  0.000E+00 3.144E-03
          total   stress  (Ry/bohr**3)                   (kbar)     P=       -0.03
   0.00000148   0.00000000   0.00000000            0.22        0.00        0.00
   0.00000000  -0.00000033   0.00000000            0.00       -0.05        0.00
   0.00000000   0.00000000  -0.00000167            0.00        0.00       -0.25

     Energy error            =      2.3E-06
     Gradient error          =      2.7E-04
     Cell gradient error     =      1.7E-06


     number of scf cycles    =  23
     number of bfgs steps    =  22

     enthalpy old            =   -3488.7009803440 Ry
     enthalpy new            =   -3488.7009826490 Ry

     CASE: enthalpy_new < enthalpy_old

     new trust radius        =       0.0016108111 bohr
     new conv_thr            =       0.0000000010 Ry

     new unit-cell volume =   2092.07897 a.u.^3 (   310.01412 Ang^3 )
     density =      4.36586 g/cm^3

CELL_PARAMETERS (angstrom)
   4.874492785   0.000000000   0.000000000
   0.000000000  10.495098877   0.000000000
   0.000000000   0.000000000   6.059900675

ATOMIC_POSITIONS (angstrom)
Fe            0.0000000000       -0.0000000000       -0.0000000000
Fe            2.4372463927        5.2475494387        0.0000000000
Fe           -0.0000000000        0.0000000000        3.0299503375
Fe            2.4372463927        5.2475494387        3.0299503375
Fe            0.0930489698        2.9284834459        4.5449255063
Fe            4.7814438157        7.5666154316        1.5149751688
Fe            2.5302953626        2.3190659928        1.5149751688
Fe            2.3441974229        8.1760328846        4.5449255063
Si            0.3441389717        4.2318572031        1.5149751688
Si            4.5303538138        6.2632416744        4.5449255063
Si            2.7813853644        1.0156922357        4.5449255063
Si            2.0931074210        9.4794066418        1.5149751688
O             1.1432665925        0.9918318787        4.5449255063
O             3.7312261930        9.5032669987        1.5149751688
O             3.5805129852        4.2557175600        1.5149751688
O             1.2939798003        6.2393813175        4.5449255063
O             1.4470529019        0.5208694321        1.5149751688
O             3.4274398836        9.9742294453        4.5449255063
O             3.8842992947        4.7266800066        4.5449255063
O             0.9901934908        5.7684188709        1.5149751688
O             1.0451577178        3.5027114838        2.8227867546
O             3.8293350677        6.9923873937        3.2371139205
O             3.4824041105        1.7448379549        3.2371139205
O             1.3920886749        8.7502609225        2.8227867546
O             3.8293350677        6.9923873937        5.8527370921
O             1.0451577178        3.5027114838        0.2071635830
O             1.3920886749        8.7502609225        0.2071635830
O             3.4824041105        1.7448379549        5.8527370921



     Writing output data file ./out/oliv.save/
     NEW-OLD atomic charge density approx. for the potential

     Check: negative core charge=   -0.000002

     negative rho (up, down):  0.000E+00 3.160E-03
     extrapolated charge  240.00255, renormalised to  240.00000
     Generating pointlists ...

     total cpu time spent up to now is    32160.0 secs

     Self-consistent Calculation

     iteration #  1     ecut=    60.00 Ry     beta= 0.30
     Davidson diagonalization with overlap
     ethr =  1.00E-06,  avg # of iterations =  3.8

     Threshold (ethr) on eigenvalues was too large:
     Diagonalizing with lowered threshold

     Davidson diagonalization with overlap
     ethr =  2.59E-09,  avg # of iterations =  8.5

     negative rho (up, down):  0.000E+00 3.161E-03

     total cpu time spent up to now is    32299.7 secs

     total energy              =   -3488.70098006 Ry
     estimated scf accuracy    <       0.00000668 Ry

     total magnetization       =    32.00 Bohr mag/cell
     absolute magnetization    =    32.10 Bohr mag/cell

     iteration #  2     ecut=    60.00 Ry     beta= 0.30
     Davidson diagonalization with overlap
     ethr =  2.78E-09,  avg # of iterations =  2.1

     negative rho (up, down):  0.000E+00 3.162E-03

     total cpu time spent up to now is    32343.9 secs

     total energy              =   -3488.70097938 Ry
     estimated scf accuracy    <       0.00004428 Ry

     total magnetization       =    32.00 Bohr mag/cell
     absolute magnetization    =    32.10 Bohr mag/cell

     iteration #  3     ecut=    60.00 Ry     beta= 0.30
     Davidson diagonalization with overlap
     ethr =  2.78E-09,  avg # of iterations =  1.0

     negative rho (up, down):  0.000E+00 3.162E-03

     total cpu time spent up to now is    32378.7 secs

     total energy              =   -3488.70098187 Ry
     estimated scf accuracy    <       0.00000722 Ry

     total magnetization       =    32.00 Bohr mag/cell
     absolute magnetization    =    32.10 Bohr mag/cell

     iteration #  4     ecut=    60.00 Ry     beta= 0.30
     Davidson diagonalization with overlap
     ethr =  2.78E-09,  avg # of iterations =  1.5

     negative rho (up, down):  0.000E+00 3.162E-03

     total cpu time spent up to now is    32418.8 secs

     total energy              =   -3488.70098347 Ry
     estimated scf accuracy    <       0.00000113 Ry

     total magnetization       =    32.00 Bohr mag/cell
     absolute magnetization    =    32.10 Bohr mag/cell

     iteration #  5     ecut=    60.00 Ry     beta= 0.30
     Davidson diagonalization with overlap
     ethr =  4.73E-10,  avg # of iterations =  2.2

     negative rho (up, down):  0.000E+00 3.163E-03

     total cpu time spent up to now is    32461.3 secs

     total energy              =   -3488.70098416 Ry
     estimated scf accuracy    <       0.00000045 Ry

     total magnetization       =    32.00 Bohr mag/cell
     absolute magnetization    =    32.10 Bohr mag/cell

     iteration #  6     ecut=    60.00 Ry     beta= 0.30
     Davidson diagonalization with overlap
     ethr =  1.87E-10,  avg # of iterations =  2.4

     negative rho (up, down):  0.000E+00 3.163E-03

     total cpu time spent up to now is    32508.0 secs

     total energy              =   -3488.70098437 Ry
     estimated scf accuracy    <       0.00000015 Ry

     total magnetization       =    32.00 Bohr mag/cell
     absolute magnetization    =    32.10 Bohr mag/cell

     iteration #  7     ecut=    60.00 Ry     beta= 0.30
     Davidson diagonalization with overlap
     ethr =  6.32E-11,  avg # of iterations =  3.5

     negative rho (up, down):  0.000E+00 3.163E-03

     total cpu time spent up to now is    32555.4 secs

     total energy              =   -3488.70098440 Ry
     estimated scf accuracy    <       0.00000010 Ry

     total magnetization       =    32.00 Bohr mag/cell
     absolute magnetization    =    32.10 Bohr mag/cell

     iteration #  8     ecut=    60.00 Ry     beta= 0.30
     Davidson diagonalization with overlap
     ethr =  4.19E-11,  avg # of iterations =  2.0

     negative rho (up, down):  0.000E+00 3.163E-03

     total cpu time spent up to now is    32595.5 secs

     total energy              =   -3488.70098441 Ry
     estimated scf accuracy    <          6.9E-09 Ry

     total magnetization       =    32.00 Bohr mag/cell
     absolute magnetization    =    32.10 Bohr mag/cell

     iteration #  9     ecut=    60.00 Ry     beta= 0.30
     Davidson diagonalization with overlap
     ethr =  2.86E-12,  avg # of iterations =  6.4

     negative rho (up, down):  0.000E+00 3.163E-03

     total cpu time spent up to now is    32673.9 secs

     total energy              =   -3488.70098441 Ry
     estimated scf accuracy    <          8.6E-09 Ry

     total magnetization       =    32.00 Bohr mag/cell
     absolute magnetization    =    32.10 Bohr mag/cell

     iteration # 10     ecut=    60.00 Ry     beta= 0.30
     Davidson diagonalization with overlap
     ethr =  2.86E-12,  avg # of iterations =  2.0

     negative rho (up, down):  0.000E+00 3.163E-03

     total cpu time spent up to now is    32715.7 secs

     total energy              =   -3488.70098441 Ry
     estimated scf accuracy    <          2.1E-09 Ry

     total magnetization       =    32.00 Bohr mag/cell
     absolute magnetization    =    32.10 Bohr mag/cell

     iteration # 11     ecut=    60.00 Ry     beta= 0.30
     Davidson diagonalization with overlap
     ethr =  8.60E-13,  avg # of iterations =  4.4

     negative rho (up, down):  0.000E+00 3.163E-03

     total cpu time spent up to now is    32767.8 secs

     total energy              =   -3488.70098442 Ry
     estimated scf accuracy    <          1.2E-09 Ry

     total magnetization       =    32.00 Bohr mag/cell
     absolute magnetization    =    32.10 Bohr mag/cell

     iteration # 12     ecut=    60.00 Ry     beta= 0.30
     Davidson diagonalization with overlap
     ethr =  4.98E-13,  avg # of iterations =  2.0

     negative rho (up, down):  0.000E+00 3.163E-03

     Magnetic moment per site:
     atom:    1    charge:   13.3638    magn:    3.3186    constr:    0.0000
     atom:    2    charge:   13.3638    magn:    3.3186    constr:    0.0000
     atom:    3    charge:   13.3638    magn:    3.3186    constr:    0.0000
     atom:    4    charge:   13.3638    magn:    3.3186    constr:    0.0000
     atom:    5    charge:   13.3277    magn:    3.4145    constr:    0.0000
     atom:    6    charge:   13.3277    magn:    3.4145    constr:    0.0000
     atom:    7    charge:   13.3277    magn:    3.4145    constr:    0.0000
     atom:    8    charge:   13.3277    magn:    3.4145    constr:    0.0000
     atom:    9    charge:    0.3879    magn:    0.0043    constr:    0.0000
     atom:   10    charge:    0.3879    magn:    0.0043    constr:    0.0000
     atom:   11    charge:    0.3879    magn:    0.0043    constr:    0.0000
     atom:   12    charge:    0.3879    magn:    0.0043    constr:    0.0000
     atom:   13    charge:    4.0295    magn:    0.1039    constr:    0.0000
     atom:   14    charge:    4.0295    magn:    0.1039    constr:    0.0000
     atom:   15    charge:    4.0295    magn:    0.1039    constr:    0.0000
     atom:   16    charge:    4.0295    magn:    0.1039    constr:    0.0000
     atom:   17    charge:    4.0232    magn:    0.1179    constr:    0.0000
     atom:   18    charge:    4.0232    magn:    0.1179    constr:    0.0000
     atom:   19    charge:    4.0232    magn:    0.1179    constr:    0.0000
     atom:   20    charge:    4.0232    magn:    0.1179    constr:    0.0000
     atom:   21    charge:    4.0206    magn:    0.1200    constr:    0.0000
     atom:   22    charge:    4.0206    magn:    0.1200    constr:    0.0000
     atom:   23    charge:    4.0206    magn:    0.1200    constr:    0.0000
     atom:   24    charge:    4.0206    magn:    0.1200    constr:    0.0000
     atom:   25    charge:    4.0206    magn:    0.1200    constr:    0.0000
     atom:   26    charge:    4.0206    magn:    0.1200    constr:    0.0000
     atom:   27    charge:    4.0206    magn:    0.1200    constr:    0.0000
     atom:   28    charge:    4.0206    magn:    0.1200    constr:    0.0000

     total cpu time spent up to now is    32809.7 secs

     End of self-consistent calculation

 ------ SPIN UP ------------


          k = 0.0000 0.0000 0.0000 ( 15339 PWs)   bands (ev):

   -79.3414 -79.3414 -79.3414 -79.3414 -79.1201 -79.1201 -79.1182 -79.1182
   -46.0124 -46.0124 -46.0112 -46.0111 -45.6245 -45.6245 -45.6185 -45.6185
   -45.2813 -45.2813 -45.2811 -45.2811 -45.0795 -45.0794 -45.0771 -45.0771
   -44.8639 -44.8639 -44.8632 -44.8631 -44.8516 -44.8516 -44.8238 -44.8238
   -11.3634 -11.1389 -10.9076 -10.7527  -9.7619  -9.7285  -9.7201  -9.6673
    -9.6455  -9.5318  -9.4864  -9.4660  -9.4498  -9.4006  -9.3790  -9.3157
     1.0465   1.0695   1.5482   1.5639   1.6420   1.7093   2.3186   2.3214
     2.3242   2.8182   2.9365   2.9964   3.1161   3.5798   3.7259   3.7826
     3.9973   4.0607   4.0687   4.1289   4.2634   4.3556   4.3645   4.4243
     4.4286   4.5192   4.5362   4.5363   4.6185   4.6806   4.7264   4.7584
     4.8300   4.9457   4.9718   4.9955   5.1746   5.2056   5.3315   5.3586
     5.3904   5.6600   5.9835   6.0004   6.0190   6.1785   6.1801   6.3602
     6.7532   6.9959   7.0291   7.0447   7.1010   7.1410   7.1744   7.3118
     7.3597   7.3853   7.3920   7.5130   7.5314   7.5625   7.8187   7.8340
     7.8556   7.9804   7.9999   8.0362   8.0613   8.0741   8.0930   8.2007
     8.3278   8.3333   8.3428   8.3974   8.5993   8.7281   8.8769   8.9265
     8.9603   9.0252   9.2093   9.2454   9.2861   9.4074   9.4301   9.6085
    11.3633  13.3465  13.9169  15.2392  15.7760  16.2605  16.3250  16.3615

          k = 0.0000 0.0000-0.3923 ( 15392 PWs)   bands (ev):

   -79.3415 -79.3415 -79.3415 -79.3415 -79.1192 -79.1192 -79.1192 -79.1192
   -46.0119 -46.0119 -46.0119 -46.0119 -45.6215 -45.6215 -45.6215 -45.6215
   -45.2812 -45.2812 -45.2812 -45.2812 -45.0783 -45.0783 -45.0783 -45.0783
   -44.8635 -44.8635 -44.8635 -44.8635 -44.8378 -44.8378 -44.8378 -44.8378
   -11.0802 -11.0802 -10.9924 -10.9924  -9.7390  -9.7390  -9.7087  -9.7087
    -9.6605  -9.6605  -9.4757  -9.4757  -9.4114  -9.4114  -9.3169  -9.3169
     1.3241   1.3241   1.4040   1.4040   2.0633   2.0633   2.1345   2.1345
     2.7443   2.7443   3.2127   3.2127   3.4413   3.4413   3.6911   3.6911
     3.7399   3.7399   3.9783   3.9783   4.1480   4.1480   4.3549   4.3549
     4.4151   4.4151   4.5018   4.5018   4.7084   4.7084   4.7486   4.7486
     4.8379   4.8379   5.0396   5.0396   5.1149   5.1149   5.4599   5.4599
     5.6206   5.6206   5.6765   5.6765   5.8045   5.8045   5.9215   5.9215
     7.0494   7.0494   7.0535   7.0535   7.1882   7.1882   7.1974   7.1974
     7.4867   7.4867   7.5309   7.5309   7.5975   7.5975   7.7461   7.7461
     8.0114   8.0114   8.0317   8.0317   8.0920   8.0920   8.1403   8.1403
     8.4132   8.4132   8.5147   8.5147   8.7272   8.7272   8.7521   8.7521
     8.8790   8.8790   8.8961   8.8961   9.1901   9.1901   9.4431   9.4431
    13.2836  13.2836  14.4110  14.4110  15.1258  15.1258  16.6330  16.6331

          k =-0.4877 0.0000 0.0000 ( 15374 PWs)   bands (ev):

   -79.3415 -79.3415 -79.3414 -79.3414 -79.1202 -79.1202 -79.1182 -79.1182
   -46.0118 -46.0118 -46.0118 -46.0118 -45.6245 -45.6245 -45.6185 -45.6185
   -45.2812 -45.2812 -45.2812 -45.2812 -45.0795 -45.0795 -45.0771 -45.0771
   -44.8636 -44.8636 -44.8635 -44.8635 -44.8516 -44.8516 -44.8238 -44.8238
   -10.9808 -10.9808 -10.7132 -10.7132 -10.0907 -10.0907  -9.8672  -9.8672
    -9.5975  -9.5975  -9.4257  -9.4257  -9.4125  -9.4125  -9.3835  -9.3835
     1.1104   1.1104   1.2138   1.2138   2.6726   2.6726   2.7665   2.7665
     2.9835   2.9835   3.0158   3.0158   3.2757   3.2757   3.3366   3.3366
     3.5579   3.5579   3.5763   3.5763   3.7437   3.7437   4.2512   4.2512
     4.3578   4.3578   4.4219   4.4219   4.8334   4.8334   4.9052   4.9052
     4.9748   4.9748   5.1053   5.1053   5.2429   5.2429   5.5457   5.5457
     5.6299   5.6299   5.7999   5.7999   6.0035   6.0035   6.6758   6.6758
     6.9914   6.9914   7.0492   7.0492   7.1318   7.1318   7.2238   7.2238
     7.2846   7.2846   7.3225   7.3225   7.4753   7.4753   7.7562   7.7562
     7.8320   7.8320   8.0427   8.0427   8.1336   8.1336   8.1949   8.1949
     8.5115   8.5115   8.7267   8.7267   8.7371   8.7371   8.8404   8.8404
     8.9457   8.9457   9.0073   9.0073   9.1697   9.1697   9.3751   9.3751
    13.9370  13.9370  14.8075  14.8075  15.2072  15.2072  15.4932  15.4932

          k =-0.4877 0.0000-0.3923 ( 15436 PWs)   bands (ev):

   -79.3415 -79.3415 -79.3415 -79.3415 -79.1192 -79.1192 -79.1192 -79.1192
   -46.0119 -46.0119 -46.0119 -46.0119 -45.6215 -45.6215 -45.6215 -45.6215
   -45.2812 -45.2812 -45.2812 -45.2812 -45.0783 -45.0783 -45.0783 -45.0783
   -44.8635 -44.8635 -44.8635 -44.8635 -44.8378 -44.8378 -44.8378 -44.8378
   -10.8448 -10.8448 -10.8133 -10.8133  -9.9875  -9.9875  -9.9810  -9.9810
    -9.5888  -9.5888  -9.5204  -9.5204  -9.3892  -9.3892  -9.3763  -9.3763
     1.2696   1.2696   1.2745   1.2745   2.7250   2.7250   2.8937   2.8937
     3.0617   3.0617   3.1503   3.1503   3.1709   3.1709   3.3832   3.3832
     3.5199   3.5199   3.6299   3.6299   3.7396   3.7396   3.8464   3.8464
     4.2829   4.2829   4.5695   4.5695   4.9967   4.9967   5.0693   5.0693
     5.1572   5.1572   5.2480   5.2480   5.2617   5.2617   5.3048   5.3048
     5.5072   5.5072   5.5977   5.5977   5.8824   5.8824   6.0417   6.0417
     7.0270   7.0270   7.1296   7.1296   7.2649   7.2649   7.2754   7.2754
     7.3135   7.3135   7.4437   7.4437   7.6807   7.6807   7.6997   7.6997
     7.7805   7.7805   7.9185   7.9185   7.9825   7.9825   8.0864   8.0864
     8.4247   8.4247   8.4277   8.4277   8.4418   8.4418   8.8080   8.8080
     8.9729   8.9729   9.0340   9.0340   9.1617   9.1617   9.5747   9.5747
    14.9103  14.9103  14.9800  14.9800  15.7679  15.7976  15.7987  15.8428

 ------ SPIN DOWN ----------


          k = 0.0000 0.0000 0.0000 ( 15339 PWs)   bands (ev):

   -75.1173 -75.1173 -75.1172 -75.1171 -75.0422 -75.0421 -75.0401 -75.0400
   -41.4370 -41.4369 -41.4349 -41.4349 -41.3144 -41.3144 -41.3061 -41.3061
   -41.2569 -41.2567 -41.2562 -41.2561 -41.1867 -41.1863 -41.1828 -41.1828
   -41.1135 -41.1134 -41.0910 -41.0909 -41.0900 -41.0899 -41.0802 -41.0802
   -11.1478 -10.9267 -10.6942 -10.5421  -9.5419  -9.5001  -9.4890  -9.4374
    -9.4070  -9.2823  -9.2425  -9.2192  -9.1954  -9.1495  -9.1234  -9.0629
     1.3140   1.3229   1.7632   1.8466   1.9057   2.0734   2.6654   2.6820
     2.7561   3.2078   3.2799   3.3462   3.5057   4.0198   4.0478   4.0878
     4.4370   4.6002   4.7612   4.8155   4.8171   4.9270   4.9473   4.9474
     4.9918   5.1018   5.1449   5.1460   5.3495   5.3664   5.4712   5.4965
     5.5512   5.5769   5.6737   5.7056   5.7802   5.7975   5.8541   5.9631
     6.2035   6.3523   6.4339   6.4585   6.6415   6.6668   6.7274   6.9086
     9.8595   9.9086  10.2205  10.2247  10.3294  10.3623  10.4136  10.4333
    10.4402  10.5470  10.6218  10.8472  10.9270  10.9504  10.9657  10.9726
    11.0000  11.0640  11.0807  11.1870  11.1873  11.1929  11.3617  11.3709
    11.8537  11.8924  11.9222  11.9844  11.9859  12.1598  12.1974  12.2755
    12.3076  12.3117  12.3484  12.4309  12.4531  12.4690  12.5317  12.7735
    12.7802  13.9280  14.4278  15.6736  16.1335  16.7186  16.7478  16.7838

          k = 0.0000 0.0000-0.3923 ( 15392 PWs)   bands (ev):

   -75.1173 -75.1173 -75.1173 -75.1173 -75.0412 -75.0412 -75.0412 -75.0412
   -41.4360 -41.4360 -41.4360 -41.4360 -41.3102 -41.3102 -41.3101 -41.3101
   -41.2565 -41.2565 -41.2564 -41.2564 -41.1847 -41.1847 -41.1845 -41.1845
   -41.0973 -41.0973 -41.0970 -41.0970 -41.0905 -41.0905 -41.0902 -41.0902
   -10.8663 -10.8663 -10.7807 -10.7807  -9.5041  -9.5041  -9.4839  -9.4839
    -9.4206  -9.4206  -9.2281  -9.2281  -9.1596  -9.1596  -9.0650  -9.0650
     1.5816   1.5816   1.6503   1.6503   2.4367   2.4367   2.4832   2.4832
     3.1105   3.1105   3.5476   3.5476   3.8144   3.8144   4.0535   4.0535
     4.2560   4.2560   4.5394   4.5394   4.7691   4.7691   4.8664   4.8664
     4.9543   4.9543   5.1393   5.1393   5.3448   5.3448   5.3715   5.3715
     5.6256   5.6256   5.7519   5.7519   5.8347   5.8347   6.0410   6.0410
     6.0829   6.0829   6.1617   6.1617   6.5535   6.5535   6.6785   6.6785
    10.3024  10.3024  10.3309  10.3309  10.3960  10.3960  10.4049  10.4049
    10.6130  10.6130  10.7189  10.7189  10.8507  10.8507  10.8799  10.8799
    10.9761  10.9761  11.0098  11.0098  11.1982  11.1982  11.2932  11.2932
    11.7815  11.7815  11.9056  11.9056  12.1659  12.1659  12.1717  12.1717
    12.3291  12.3291  12.3698  12.3698  12.5526  12.5526  12.6237  12.6237
    13.9011  13.9011  14.9261  14.9261  15.6347  15.6347  16.9887  16.9887

          k =-0.4877 0.0000 0.0000 ( 15374 PWs)   bands (ev):

   -75.1173 -75.1173 -75.1172 -75.1172 -75.0423 -75.0423 -75.0400 -75.0400
   -41.4360 -41.4360 -41.4359 -41.4359 -41.3145 -41.3145 -41.3061 -41.3061
   -41.2566 -41.2566 -41.2563 -41.2563 -41.1865 -41.1865 -41.1828 -41.1828
   -41.1135 -41.1135 -41.0905 -41.0905 -41.0905 -41.0905 -41.0802 -41.0802
   -10.7689 -10.7689 -10.4939 -10.4939  -9.8668  -9.8668  -9.6449  -9.6449
    -9.3486  -9.3486  -9.1725  -9.1725  -9.1633  -9.1633  -9.1384  -9.1384
     1.4045   1.4045   1.4505   1.4505   3.0054   3.0054   3.0827   3.0827
     3.3976   3.3976   3.4148   3.4148   3.7003   3.7003   3.7721   3.7721
     3.9801   3.9801   4.0800   4.0800   4.1313   4.1313   4.6126   4.6126
     4.9729   4.9729   5.0903   5.0903   5.5454   5.5454   5.6699   5.6699
     5.8113   5.8113   5.8474   5.8474   6.0479   6.0479   6.1135   6.1135
     6.2936   6.2936   6.4435   6.4435   6.5588   6.5588   7.0736   7.0736
     9.8952   9.8952  10.1425  10.1425  10.3482  10.3482  10.4528  10.4528
    10.5757  10.5757  10.6963  10.6963  10.9929  10.9929  11.0058  11.0058
    11.0783  11.0783  11.1410  11.1410  11.1665  11.1665  11.4198  11.4198
    11.8883  11.8883  12.0029  12.0029  12.0527  12.0527  12.1675  12.1675
    12.2124  12.2124  12.4079  12.4079  12.4615  12.4615  12.6436  12.6436
    14.3848  14.3848  15.1503  15.1503  15.7865  15.7865  16.0845  16.0845

          k =-0.4877 0.0000-0.3923 ( 15436 PWs)   bands (ev):

   -75.1174 -75.1174 -75.1173 -75.1173 -75.0412 -75.0412 -75.0412 -75.0412
   -41.4361 -41.4361 -41.4360 -41.4360 -41.3102 -41.3102 -41.3101 -41.3101
   -41.2566 -41.2566 -41.2563 -41.2563 -41.1847 -41.1847 -41.1845 -41.1845
   -41.0973 -41.0973 -41.0971 -41.0971 -41.0905 -41.0905 -41.0902 -41.0902
   -10.6300 -10.6300 -10.5985 -10.5985  -9.7650  -9.7650  -9.7558  -9.7558
    -9.3401  -9.3401  -9.2720  -9.2720  -9.1375  -9.1375  -9.1289  -9.1289
     1.5370   1.5370   1.5670   1.5670   3.1193   3.1193   3.3018   3.3018
     3.4440   3.4440   3.5524   3.5524   3.5753   3.5753   3.7314   3.7314
     3.9827   3.9827   4.0319   4.0319   4.3046   4.3046   4.3378   4.3378
     4.7080   4.7080   5.0566   5.0566   5.5304   5.5304   5.5570   5.5570
     5.7831   5.7831   5.8802   5.8802   6.1518   6.1518   6.1877   6.1877
     6.2716   6.2716   6.3268   6.3268   6.4540   6.4540   6.6642   6.6642
    10.2250  10.2250  10.2434  10.2434  10.4136  10.4136  10.4387  10.4387
    10.6925  10.6925  10.7166  10.7166  10.8965  10.8965  10.8965  10.8965
    11.0336  11.0336  11.1031  11.1031  11.1518  11.1518  11.2175  11.2175
    11.7205  11.7205  11.7549  11.7549  11.9714  11.9714  12.0372  12.0372
    12.1858  12.1858  12.3236  12.3236  12.4975  12.4975  12.8060  12.8060
    15.3530  15.3530  15.5038  15.5038  16.2736  16.2736  16.2889  16.2889

     the Fermi energy is    10.5149 ev

!    total energy              =   -3488.70098442 Ry

     total all-electron energy =    -25094.006952 Ry
     estimated scf accuracy    <          7.4E-10 Ry
     smearing contrib. (-TS)   =      -0.01067665 Ry
     internal energy E=F+TS    =   -3488.69030777 Ry

     The total energy is F=E-TS. E is the sum of the following terms:
     one-electron contribution =   -1483.41481410 Ry
     hartree contribution      =     868.69645652 Ry
     xc contribution           =    -368.40310194 Ry
     ewald contribution        =   -1547.81362530 Ry
     one-center paw contrib.   =    -957.75522295 Ry

     total magnetization       =    32.00 Bohr mag/cell
     absolute magnetization    =    32.10 Bohr mag/cell

     convergence has been achieved in  12 iterations

     negative rho (up, down):  0.000E+00 3.163E-03

     Forces acting on atoms (cartesian axes, Ry/au):

     atom    1 type  1   force =     0.00000000    0.00000000   -0.00000000
     atom    2 type  1   force =    -0.00000000   -0.00000000    0.00000000
     atom    3 type  1   force =     0.00000000    0.00000000    0.00000000
     atom    4 type  1   force =     0.00000000    0.00000000    0.00000000
     atom    5 type  1   force =    -0.00010336   -0.00004166    0.00000000
     atom    6 type  1   force =     0.00010336    0.00004166   -0.00000000
     atom    7 type  1   force =    -0.00010336    0.00004166   -0.00000000
     atom    8 type  1   force =     0.00010336   -0.00004166   -0.00000000
     atom    9 type  2   force =    -0.00017949    0.00000992    0.00000000
     atom   10 type  2   force =     0.00017949   -0.00000992    0.00000000
     atom   11 type  2   force =    -0.00017949   -0.00000992    0.00000000
     atom   12 type  2   force =     0.00017949    0.00000992    0.00000000
     atom   13 type  3   force =    -0.00002901   -0.00013953    0.00000000
     atom   14 type  3   force =     0.00002901    0.00013953    0.00000000
     atom   15 type  3   force =    -0.00002901    0.00013953   -0.00000000
     atom   16 type  3   force =     0.00002901   -0.00013953    0.00000000
     atom   17 type  3   force =    -0.00001537   -0.00004883   -0.00000000
     atom   18 type  3   force =     0.00001537    0.00004883    0.00000000
     atom   19 type  3   force =    -0.00001537    0.00004883    0.00000000
     atom   20 type  3   force =     0.00001537   -0.00004883    0.00000000
     atom   21 type  3   force =     0.00009926   -0.00001627   -0.00004984
     atom   22 type  3   force =    -0.00009926    0.00001627    0.00004984
     atom   23 type  3   force =     0.00009926    0.00001627    0.00004984
     atom   24 type  3   force =    -0.00009926   -0.00001627   -0.00004984
     atom   25 type  3   force =    -0.00009926    0.00001627   -0.00004984
     atom   26 type  3   force =     0.00009926   -0.00001627    0.00004984
     atom   27 type  3   force =    -0.00009926   -0.00001627    0.00004984
     atom   28 type  3   force =     0.00009926    0.00001627   -0.00004984

     Total force =     0.000609     Total SCF correction =     0.000048


     Computing stress (Cartesian axis) and pressure


     negative rho (up, down):  0.000E+00 3.163E-03
          total   stress  (Ry/bohr**3)                   (kbar)     P=       -0.06
   0.00000092   0.00000000   0.00000000            0.13        0.00        0.00
   0.00000000  -0.00000046   0.00000000            0.00       -0.07        0.00
   0.00000000   0.00000000  -0.00000171            0.00        0.00       -0.25

     Energy error            =      1.8E-06
     Gradient error          =      1.8E-04
     Cell gradient error     =      1.7E-06


     number of scf cycles    =  24
     number of bfgs steps    =  23

     enthalpy old            =   -3488.7009826490 Ry
     enthalpy new            =   -3488.7009844157 Ry

     CASE: enthalpy_new < enthalpy_old

     new trust radius        =       0.0008739851 bohr
     new conv_thr            =       0.0000000010 Ry

     new unit-cell volume =   2092.01191 a.u.^3 (   310.00418 Ang^3 )
     density =      4.36600 g/cm^3

CELL_PARAMETERS (angstrom)
   4.874786252   0.000000000   0.000000000
   0.000000000  10.494719681   0.000000000
   0.000000000   0.000000000   6.059560577

ATOMIC_POSITIONS (angstrom)
Fe            0.0000000000       -0.0000000000       -0.0000000000
Fe            2.4373931258        5.2473598403        0.0000000000
Fe           -0.0000000000        0.0000000000        3.0297802884
Fe            2.4373931258        5.2473598403        3.0297802884
Fe            0.0926546226        2.9281453535        4.5446704326
Fe            4.7821316291        7.5665743270        1.5148901442
Fe            2.5300477484        2.3192144868        1.5148901442
Fe            2.3447385032        8.1755051938        4.5446704326
Si            0.3438437820        4.2318280978        1.5148901442
Si            4.5309424696        6.2628915827        4.5446704326
Si            2.7812369078        1.0155317425        4.5446704326
Si            2.0935493438        9.4791879380        1.5148901442
O             1.1431409015        0.9916602362        4.5446704326
O             3.7316453501        9.5030594444        1.5148901442
O             3.5805340273        4.2556996041        1.5148901442
O             1.2942522243        6.2390200764        4.5446704326
O             1.4471470217        0.5208775235        1.5148901442
O             3.4276392299        9.9738421570        4.5446704326
O             3.8845401475        4.7264823168        4.5446704326
O             0.9902461041        5.7682373638        1.5148901442
O             1.0450545389        3.5025336246        2.8225113294
O             3.8297317127        6.9921860559        3.2370492473
O             3.4824476647        1.7448262157        3.2370492473
O             1.3923385869        8.7498934649        2.8225113294
O             3.8297317127        6.9921860559        5.8522916178
O             1.0450545389        3.5025336246        0.2072689590
O             1.3923385869        8.7498934649        0.2072689590
O             3.4824476647        1.7448262157        5.8522916178



     Writing output data file ./out/oliv.save/
     NEW-OLD atomic charge density approx. for the potential

     Check: negative core charge=   -0.000002

     negative rho (up, down):  0.000E+00 3.172E-03
     extrapolated charge  239.99231, renormalised to  240.00000
     Generating pointlists ...

     total cpu time spent up to now is    32850.3 secs

     Self-consistent Calculation

     iteration #  1     ecut=    60.00 Ry     beta= 0.30
     Davidson diagonalization with overlap
     ethr =  1.00E-06,  avg # of iterations =  2.5

     Threshold (ethr) on eigenvalues was too large:
     Diagonalizing with lowered threshold

     Davidson diagonalization with overlap
     ethr =  3.18E-09,  avg # of iterations =  7.4

     negative rho (up, down):  0.000E+00 3.171E-03

     total cpu time spent up to now is    32973.8 secs

     total energy              =   -3488.70097963 Ry
     estimated scf accuracy    <       0.00000695 Ry

     total magnetization       =    32.00 Bohr mag/cell
     absolute magnetization    =    32.10 Bohr mag/cell

     iteration #  2     ecut=    60.00 Ry     beta= 0.30
     Davidson diagonalization with overlap
     ethr =  2.89E-09,  avg # of iterations =  4.1

     negative rho (up, down):  0.000E+00 3.172E-03

     total cpu time spent up to now is    33031.0 secs

     total energy              =   -3488.70098229 Ry
     estimated scf accuracy    <       0.00002999 Ry

     total magnetization       =    32.00 Bohr mag/cell
     absolute magnetization    =    32.10 Bohr mag/cell

     iteration #  3     ecut=    60.00 Ry     beta= 0.30
     Davidson diagonalization with overlap
     ethr =  2.89E-09,  avg # of iterations =  2.0

     negative rho (up, down):  0.000E+00 3.172E-03

     total cpu time spent up to now is    33071.2 secs

     total energy              =   -3488.70098304 Ry
     estimated scf accuracy    <       0.00004867 Ry

     total magnetization       =    32.00 Bohr mag/cell
     absolute magnetization    =    32.10 Bohr mag/cell

     iteration #  4     ecut=    60.00 Ry     beta= 0.30
     Davidson diagonalization with overlap
     ethr =  2.89E-09,  avg # of iterations =  1.9

     negative rho (up, down):  0.000E+00 3.172E-03

     total cpu time spent up to now is    33110.7 secs

     total energy              =   -3488.70098447 Ry
     estimated scf accuracy    <       0.00000193 Ry

     total magnetization       =    32.00 Bohr mag/cell
     absolute magnetization    =    32.10 Bohr mag/cell

     iteration #  5     ecut=    60.00 Ry     beta= 0.30
     Davidson diagonalization with overlap
     ethr =  8.06E-10,  avg # of iterations =  2.0

     negative rho (up, down):  0.000E+00 3.173E-03

     total cpu time spent up to now is    33152.8 secs

     total energy              =   -3488.70098493 Ry
     estimated scf accuracy    <       0.00000038 Ry

     total magnetization       =    32.00 Bohr mag/cell
     absolute magnetization    =    32.10 Bohr mag/cell

     iteration #  6     ecut=    60.00 Ry     beta= 0.30
     Davidson diagonalization with overlap
     ethr =  1.58E-10,  avg # of iterations =  4.1

     negative rho (up, down):  0.000E+00 3.173E-03

     total cpu time spent up to now is    33203.2 secs

     total energy              =   -3488.70098515 Ry
     estimated scf accuracy    <       0.00000025 Ry

     total magnetization       =    32.00 Bohr mag/cell
     absolute magnetization    =    32.10 Bohr mag/cell

     iteration #  7     ecut=    60.00 Ry     beta= 0.30
     Davidson diagonalization with overlap
     ethr =  1.05E-10,  avg # of iterations =  2.0

     negative rho (up, down):  0.000E+00 3.173E-03

     total cpu time spent up to now is    33237.6 secs

     total energy              =   -3488.70098521 Ry
     estimated scf accuracy    <       0.00000005 Ry

     total magnetization       =    32.00 Bohr mag/cell
     absolute magnetization    =    32.10 Bohr mag/cell

     iteration #  8     ecut=    60.00 Ry     beta= 0.30
     Davidson diagonalization with overlap
     ethr =  1.88E-11,  avg # of iterations =  6.0

     negative rho (up, down):  0.000E+00 3.173E-03

     total cpu time spent up to now is    33306.1 secs

     total energy              =   -3488.70098525 Ry
     estimated scf accuracy    <       0.00000027 Ry

     total magnetization       =    32.00 Bohr mag/cell
     absolute magnetization    =    32.10 Bohr mag/cell

     iteration #  9     ecut=    60.00 Ry     beta= 0.30
     Davidson diagonalization with overlap
     ethr =  1.88E-11,  avg # of iterations =  2.0

     negative rho (up, down):  0.000E+00 3.173E-03

     total cpu time spent up to now is    33346.6 secs

     total energy              =   -3488.70098519 Ry
     estimated scf accuracy    <       0.00000015 Ry

     total magnetization       =    32.00 Bohr mag/cell
     absolute magnetization    =    32.10 Bohr mag/cell

     iteration # 10     ecut=    60.00 Ry     beta= 0.30
     Davidson diagonalization with overlap
     ethr =  1.88E-11,  avg # of iterations =  6.4

     negative rho (up, down):  0.000E+00 3.173E-03

     total cpu time spent up to now is    33416.5 secs

     total energy              =   -3488.70098522 Ry
     estimated scf accuracy    <       0.00000001 Ry

     total magnetization       =    32.00 Bohr mag/cell
     absolute magnetization    =    32.10 Bohr mag/cell

     iteration # 11     ecut=    60.00 Ry     beta= 0.30
     Davidson diagonalization with overlap
     ethr =  4.44E-12,  avg # of iterations =  4.9

     negative rho (up, down):  0.000E+00 3.173E-03

     total cpu time spent up to now is    33470.4 secs

     total energy              =   -3488.70098522 Ry
     estimated scf accuracy    <       0.00000001 Ry

     total magnetization       =    32.00 Bohr mag/cell
     absolute magnetization    =    32.10 Bohr mag/cell

     iteration # 12     ecut=    60.00 Ry     beta= 0.30
     Davidson diagonalization with overlap
     ethr =  4.44E-12,  avg # of iterations =  5.1

     negative rho (up, down):  0.000E+00 3.173E-03

     total cpu time spent up to now is    33512.4 secs

     total energy              =   -3488.70098522 Ry
     estimated scf accuracy    <          1.5E-09 Ry

     total magnetization       =    32.00 Bohr mag/cell
     absolute magnetization    =    32.10 Bohr mag/cell

     iteration # 13     ecut=    60.00 Ry     beta= 0.30
     Davidson diagonalization with overlap
     ethr =  6.15E-13,  avg # of iterations =  5.0

     negative rho (up, down):  0.000E+00 3.173E-03

     total cpu time spent up to now is    33560.6 secs

     total energy              =   -3488.70098522 Ry
     estimated scf accuracy    <          2.3E-09 Ry

     total magnetization       =    32.00 Bohr mag/cell
     absolute magnetization    =    32.10 Bohr mag/cell

     iteration # 14     ecut=    60.00 Ry     beta= 0.30
     Davidson diagonalization with overlap
     ethr =  6.15E-13,  avg # of iterations =  6.0

     negative rho (up, down):  0.000E+00 3.173E-03

     total cpu time spent up to now is    33638.4 secs

     total energy              =   -3488.70098522 Ry
     estimated scf accuracy    <          3.4E-09 Ry

     total magnetization       =    32.00 Bohr mag/cell
     absolute magnetization    =    32.10 Bohr mag/cell

     iteration # 15     ecut=    60.00 Ry     beta= 0.30
     Davidson diagonalization with overlap
     ethr =  6.15E-13,  avg # of iterations =  5.9

     negative rho (up, down):  0.000E+00 3.173E-03

     Magnetic moment per site:
     atom:    1    charge:   13.3638    magn:    3.3186    constr:    0.0000
     atom:    2    charge:   13.3638    magn:    3.3186    constr:    0.0000
     atom:    3    charge:   13.3638    magn:    3.3186    constr:    0.0000
     atom:    4    charge:   13.3638    magn:    3.3186    constr:    0.0000
     atom:    5    charge:   13.3277    magn:    3.4146    constr:    0.0000
     atom:    6    charge:   13.3277    magn:    3.4146    constr:    0.0000
     atom:    7    charge:   13.3277    magn:    3.4146    constr:    0.0000
     atom:    8    charge:   13.3277    magn:    3.4146    constr:    0.0000
     atom:    9    charge:    0.3879    magn:    0.0043    constr:    0.0000
     atom:   10    charge:    0.3879    magn:    0.0043    constr:    0.0000
     atom:   11    charge:    0.3879    magn:    0.0043    constr:    0.0000
     atom:   12    charge:    0.3879    magn:    0.0043    constr:    0.0000
     atom:   13    charge:    4.0295    magn:    0.1039    constr:    0.0000
     atom:   14    charge:    4.0295    magn:    0.1039    constr:    0.0000
     atom:   15    charge:    4.0295    magn:    0.1039    constr:    0.0000
     atom:   16    charge:    4.0295    magn:    0.1039    constr:    0.0000
     atom:   17    charge:    4.0232    magn:    0.1179    constr:    0.0000
     atom:   18    charge:    4.0232    magn:    0.1179    constr:    0.0000
     atom:   19    charge:    4.0232    magn:    0.1179    constr:    0.0000
     atom:   20    charge:    4.0232    magn:    0.1179    constr:    0.0000
     atom:   21    charge:    4.0206    magn:    0.1200    constr:    0.0000
     atom:   22    charge:    4.0206    magn:    0.1200    constr:    0.0000
     atom:   23    charge:    4.0206    magn:    0.1200    constr:    0.0000
     atom:   24    charge:    4.0206    magn:    0.1200    constr:    0.0000
     atom:   25    charge:    4.0206    magn:    0.1200    constr:    0.0000
     atom:   26    charge:    4.0206    magn:    0.1200    constr:    0.0000
     atom:   27    charge:    4.0206    magn:    0.1200    constr:    0.0000
     atom:   28    charge:    4.0206    magn:    0.1200    constr:    0.0000

     total cpu time spent up to now is    33709.8 secs

     End of self-consistent calculation

 ------ SPIN UP ------------


          k = 0.0000 0.0000 0.0000 ( 15339 PWs)   bands (ev):

   -79.3410 -79.3410 -79.3410 -79.3409 -79.1194 -79.1193 -79.1175 -79.1174
   -46.0119 -46.0119 -46.0106 -46.0106 -45.6236 -45.6236 -45.6176 -45.6176
   -45.2809 -45.2809 -45.2807 -45.2807 -45.0787 -45.0786 -45.0763 -45.0763
   -44.8635 -44.8635 -44.8627 -44.8627 -44.8511 -44.8510 -44.8232 -44.8232
   -11.3632 -11.1387 -10.9072 -10.7525  -9.7624  -9.7288  -9.7206  -9.6679
    -9.6452  -9.5307  -9.4858  -9.4648  -9.4492  -9.4000  -9.3779  -9.3146
     1.0462   1.0694   1.5481   1.5649   1.6423   1.7096   2.3189   2.3215
     2.3250   2.8184   2.9370   2.9970   3.1164   3.5806   3.7264   3.7837
     3.9978   4.0604   4.0692   4.1294   4.2636   4.3564   4.3651   4.4244
     4.4288   4.5194   4.5360   4.5369   4.6188   4.6806   4.7263   4.7579
     4.8312   4.9464   4.9727   4.9959   5.1749   5.2055   5.3321   5.3594
     5.3904   5.6603   5.9848   6.0002   6.0201   6.1793   6.1807   6.3615
     6.7539   6.9965   7.0298   7.0455   7.1014   7.1415   7.1752   7.3126
     7.3603   7.3860   7.3924   7.5129   7.5318   7.5628   7.8191   7.8345
     7.8563   7.9807   8.0007   8.0367   8.0619   8.0745   8.0940   8.2012
     8.3285   8.3339   8.3436   8.3978   8.5998   8.7289   8.8775   8.9271
     8.9608   9.0261   9.2100   9.2468   9.2868   9.4084   9.4306   9.6087
    11.3638  13.3467  13.9176  15.2397  15.7762  16.2613  16.3252  16.3602

          k = 0.0000 0.0000-0.3923 ( 15392 PWs)   bands (ev):

   -79.3410 -79.3410 -79.3410 -79.3410 -79.1184 -79.1184 -79.1184 -79.1184
   -46.0113 -46.0113 -46.0113 -46.0113 -45.6206 -45.6206 -45.6206 -45.6206
   -45.2808 -45.2808 -45.2808 -45.2808 -45.0775 -45.0775 -45.0775 -45.0775
   -44.8631 -44.8631 -44.8631 -44.8631 -44.8372 -44.8372 -44.8372 -44.8372
   -11.0800 -11.0800 -10.9922 -10.9922  -9.7391  -9.7391  -9.7092  -9.7092
    -9.6602  -9.6602  -9.4749  -9.4749  -9.4105  -9.4105  -9.3159  -9.3159
     1.3240   1.3240   1.4038   1.4038   2.0641   2.0641   2.1350   2.1350
     2.7450   2.7450   3.2135   3.2135   3.4419   3.4419   3.6920   3.6920
     3.7400   3.7400   3.9785   3.9785   4.1484   4.1484   4.3555   4.3555
     4.4153   4.4153   4.5024   4.5024   4.7086   4.7086   4.7488   4.7488
     4.8383   4.8383   5.0400   5.0400   5.1149   5.1149   5.4599   5.4599
     5.6214   5.6214   5.6769   5.6769   5.8048   5.8048   5.9223   5.9223
     7.0499   7.0499   7.0542   7.0542   7.1889   7.1889   7.1981   7.1981
     7.4872   7.4872   7.5313   7.5313   7.5982   7.5982   7.7467   7.7467
     8.0122   8.0122   8.0322   8.0322   8.0927   8.0927   8.1408   8.1408
     8.4141   8.4141   8.5154   8.5154   8.7279   8.7279   8.7530   8.7530
     8.8797   8.8797   8.8966   8.8966   9.1906   9.1906   9.4436   9.4436
    13.2841  13.2841  14.4113  14.4113  15.1266  15.1266  16.6325  16.6326

          k =-0.4876 0.0000 0.0000 ( 15374 PWs)   bands (ev):

   -79.3410 -79.3410 -79.3410 -79.3410 -79.1194 -79.1194 -79.1175 -79.1175
   -46.0113 -46.0113 -46.0113 -46.0113 -45.6236 -45.6236 -45.6176 -45.6176
   -45.2808 -45.2808 -45.2807 -45.2807 -45.0787 -45.0787 -45.0763 -45.0763
   -44.8632 -44.8632 -44.8631 -44.8631 -44.8510 -44.8510 -44.8232 -44.8232
   -10.9806 -10.9806 -10.7128 -10.7128 -10.0914 -10.0914  -9.8676  -9.8676
    -9.5970  -9.5970  -9.4245  -9.4245  -9.4114  -9.4114  -9.3829  -9.3829
     1.1110   1.1110   1.2146   1.2146   2.6728   2.6728   2.7663   2.7663
     2.9831   2.9831   3.0162   3.0162   3.2755   3.2755   3.3368   3.3368
     3.5583   3.5583   3.5775   3.5775   3.7438   3.7438   4.2511   4.2511
     4.3581   4.3581   4.4233   4.4233   4.8341   4.8341   4.9055   4.9055
     4.9755   4.9755   5.1061   5.1061   5.2433   5.2433   5.5461   5.5461
     5.6307   5.6307   5.7999   5.7999   6.0033   6.0033   6.6766   6.6766
     6.9920   6.9920   7.0497   7.0497   7.1322   7.1322   7.2243   7.2243
     7.2851   7.2851   7.3230   7.3230   7.4761   7.4761   7.7566   7.7566
     7.8327   7.8327   8.0432   8.0432   8.1344   8.1344   8.1954   8.1954
     8.5121   8.5121   8.7272   8.7272   8.7382   8.7382   8.8414   8.8414
     8.9463   8.9463   9.0081   9.0081   9.1702   9.1702   9.3757   9.3757
    13.9378  13.9378  14.8081  14.8081  15.2071  15.2071  15.4947  15.4947

          k =-0.4876 0.0000-0.3923 ( 15436 PWs)   bands (ev):

   -79.3410 -79.3410 -79.3410 -79.3410 -79.1185 -79.1185 -79.1185 -79.1185
   -46.0114 -46.0114 -46.0113 -46.0113 -45.6206 -45.6206 -45.6206 -45.6206
   -45.2808 -45.2808 -45.2807 -45.2807 -45.0775 -45.0775 -45.0775 -45.0775
   -44.8631 -44.8631 -44.8631 -44.8631 -44.8372 -44.8372 -44.8372 -44.8372
   -10.8445 -10.8445 -10.8130 -10.8130  -9.9881  -9.9881  -9.9814  -9.9814
    -9.5882  -9.5882  -9.5195  -9.5195  -9.3883  -9.3883  -9.3753  -9.3753
     1.2703   1.2703   1.2751   1.2751   2.7251   2.7251   2.8939   2.8939
     3.0621   3.0621   3.1506   3.1506   3.1707   3.1707   3.3835   3.3835
     3.5203   3.5203   3.6304   3.6304   3.7402   3.7402   3.8464   3.8464
     4.2836   4.2836   4.5701   4.5701   4.9976   4.9976   5.0694   5.0694
     5.1577   5.1577   5.2490   5.2490   5.2621   5.2621   5.3047   5.3047
     5.5079   5.5079   5.5980   5.5980   5.8828   5.8828   6.0422   6.0422
     7.0274   7.0274   7.1301   7.1301   7.2657   7.2657   7.2762   7.2762
     7.3139   7.3139   7.4442   7.4442   7.6812   7.6812   7.7002   7.7002
     7.7812   7.7812   7.9192   7.9192   7.9830   7.9830   8.0870   8.0870
     8.4256   8.4256   8.4283   8.4283   8.4426   8.4426   8.8086   8.8086
     8.9732   8.9732   9.0344   9.0344   9.1624   9.1624   9.5754   9.5754
    14.9110  14.9110  14.9809  14.9809  15.7682  15.7975  15.7985  15.8408

 ------ SPIN DOWN ----------


          k = 0.0000 0.0000 0.0000 ( 15339 PWs)   bands (ev):

   -75.1168 -75.1168 -75.1166 -75.1165 -75.0416 -75.0414 -75.0394 -75.0394
   -41.4364 -41.4364 -41.4344 -41.4344 -41.3137 -41.3137 -41.3053 -41.3053
   -41.2564 -41.2561 -41.2556 -41.2555 -41.1860 -41.1856 -41.1822 -41.1821
   -41.1129 -41.1128 -41.0904 -41.0904 -41.0895 -41.0893 -41.0795 -41.0795
   -11.1476 -10.9266 -10.6939 -10.5419  -9.5423  -9.5004  -9.4895  -9.4379
    -9.4066  -9.2811  -9.2419  -9.2181  -9.1947  -9.1489  -9.1222  -9.0617
     1.3137   1.3229   1.7632   1.8467   1.9067   2.0736   2.6662   2.6823
     2.7561   3.2080   3.2805   3.3468   3.5059   4.0206   4.0484   4.0888
     4.4369   4.6007   4.7612   4.8163   4.8174   4.9270   4.9477   4.9478
     4.9919   5.1016   5.1447   5.1456   5.3498   5.3676   5.4714   5.4977
     5.5515   5.5773   5.6739   5.7060   5.7799   5.7983   5.8547   5.9632
     6.2042   6.3521   6.4347   6.4601   6.6423   6.6672   6.7286   6.9097
     9.8602   9.9093  10.2212  10.2251  10.3296  10.3628  10.4142  10.4342
    10.4408  10.5478  10.6226  10.8475  10.9274  10.9507  10.9663  10.9730
    11.0006  11.0647  11.0812  11.1876  11.1879  11.1932  11.3627  11.3719
    11.8543  11.8930  11.9226  11.9852  11.9865  12.1605  12.1978  12.2761
    12.3085  12.3129  12.3493  12.4317  12.4539  12.4697  12.5324  12.7739
    12.7807  13.9281  14.4283  15.6740  16.1337  16.7186  16.7465  16.7826

          k = 0.0000 0.0000-0.3923 ( 15392 PWs)   bands (ev):

   -75.1167 -75.1167 -75.1167 -75.1167 -75.0405 -75.0405 -75.0405 -75.0405
   -41.4355 -41.4355 -41.4355 -41.4355 -41.3094 -41.3094 -41.3094 -41.3094
   -41.2560 -41.2560 -41.2558 -41.2558 -41.1840 -41.1840 -41.1839 -41.1839
   -41.0966 -41.0966 -41.0964 -41.0964 -41.0900 -41.0900 -41.0897 -41.0897
   -10.8661 -10.8661 -10.7805 -10.7805  -9.5042  -9.5042  -9.4844  -9.4844
    -9.4201  -9.4201  -9.2273  -9.2273  -9.1586  -9.1586  -9.0641  -9.0641
     1.5815   1.5815   1.6501   1.6501   2.4376   2.4376   2.4837   2.4837
     3.1113   3.1113   3.5484   3.5484   3.8148   3.8148   4.0543   4.0543
     4.2562   4.2562   4.5398   4.5398   4.7693   4.7693   4.8669   4.8669
     4.9548   4.9548   5.1391   5.1391   5.3449   5.3449   5.3717   5.3717
     5.6258   5.6258   5.7521   5.7521   5.8350   5.8350   6.0411   6.0411
     6.0838   6.0838   6.1623   6.1623   6.5542   6.5542   6.6795   6.6795
    10.3031  10.3031  10.3317  10.3317  10.3967  10.3967  10.4056  10.4056
    10.6134  10.6134  10.7197  10.7197  10.8510  10.8510  10.8806  10.8806
    10.9766  10.9766  11.0105  11.0105  11.1987  11.1987  11.2937  11.2937
    11.7825  11.7825  11.9065  11.9065  12.1666  12.1666  12.1720  12.1720
    12.3299  12.3299  12.3704  12.3704  12.5532  12.5532  12.6243  12.6243
    13.9015  13.9015  14.9262  14.9262  15.6353  15.6353  16.9880  16.9880

          k =-0.4876 0.0000 0.0000 ( 15374 PWs)   bands (ev):

   -75.1168 -75.1168 -75.1166 -75.1166 -75.0416 -75.0416 -75.0394 -75.0394
   -41.4354 -41.4354 -41.4354 -41.4354 -41.3138 -41.3138 -41.3054 -41.3054
   -41.2560 -41.2560 -41.2557 -41.2557 -41.1858 -41.1858 -41.1822 -41.1822
   -41.1128 -41.1128 -41.0899 -41.0899 -41.0899 -41.0899 -41.0795 -41.0795
   -10.7687 -10.7687 -10.4935 -10.4935  -9.8675  -9.8675  -9.6453  -9.6453
    -9.3481  -9.3481  -9.1713  -9.1713  -9.1622  -9.1622  -9.1378  -9.1378
     1.4051   1.4051   1.4513   1.4513   3.0056   3.0056   3.0827   3.0827
     3.3971   3.3971   3.4150   3.4150   3.7001   3.7001   3.7723   3.7723
     3.9805   3.9805   4.0812   4.0812   4.1314   4.1314   4.6123   4.6123
     4.9735   4.9735   5.0916   5.0916   5.5463   5.5463   5.6702   5.6702
     5.8111   5.8111   5.8485   5.8485   6.0480   6.0480   6.1141   6.1141
     6.2947   6.2947   6.4438   6.4438   6.5586   6.5586   7.0744   7.0744
     9.8959   9.8959  10.1431  10.1431  10.3489  10.3489  10.4534  10.4534
    10.5764  10.5764  10.6966  10.6966  10.9935  10.9935  11.0063  11.0063
    11.0786  11.0786  11.1416  11.1416  11.1671  11.1671  11.4208  11.4208
    11.8887  11.8887  12.0038  12.0038  12.0536  12.0536  12.1682  12.1682
    12.2130  12.2130  12.4086  12.4086  12.4621  12.4621  12.6443  12.6443
    14.3855  14.3855  15.1506  15.1506  15.7868  15.7868  16.0858  16.0858

          k =-0.4876 0.0000-0.3923 ( 15436 PWs)   bands (ev):

   -75.1168 -75.1168 -75.1167 -75.1167 -75.0406 -75.0406 -75.0406 -75.0406
   -41.4355 -41.4355 -41.4355 -41.4355 -41.3095 -41.3095 -41.3094 -41.3094
   -41.2560 -41.2560 -41.2557 -41.2557 -41.1840 -41.1840 -41.1839 -41.1839
   -41.0967 -41.0967 -41.0964 -41.0964 -41.0899 -41.0899 -41.0897 -41.0897
   -10.6298 -10.6298 -10.5982 -10.5982  -9.7656  -9.7656  -9.7562  -9.7562
    -9.3395  -9.3395  -9.2711  -9.2711  -9.1366  -9.1366  -9.1279  -9.1279
     1.5375   1.5375   1.5676   1.5676   3.1195   3.1195   3.3021   3.3021
     3.4444   3.4444   3.5524   3.5524   3.5752   3.5752   3.7315   3.7315
     3.9833   3.9833   4.0319   4.0319   4.3057   4.3057   4.3378   4.3378
     4.7087   4.7087   5.0569   5.0569   5.5311   5.5311   5.5576   5.5576
     5.7832   5.7832   5.8807   5.8807   6.1519   6.1519   6.1880   6.1880
     6.2722   6.2722   6.3270   6.3270   6.4546   6.4546   6.6650   6.6650
    10.2256  10.2256  10.2442  10.2442  10.4143  10.4143  10.4394  10.4394
    10.6930  10.6930  10.7169  10.7169  10.8969  10.8969  10.8972  10.8972
    11.0342  11.0342  11.1038  11.1038  11.1523  11.1523  11.2180  11.2180
    11.7213  11.7213  11.7557  11.7557  11.9721  11.9721  12.0377  12.0377
    12.1861  12.1861  12.3243  12.3243  12.4981  12.4981  12.8067  12.8067
    15.3537  15.3537  15.5047  15.5047  16.2733  16.2733  16.2887  16.2887

     the Fermi energy is    10.5155 ev

!    total energy              =   -3488.70098522 Ry

     total all-electron energy =    -25094.006953 Ry
     estimated scf accuracy    <          2.8E-10 Ry
     smearing contrib. (-TS)   =      -0.01068103 Ry
     internal energy E=F+TS    =   -3488.69030420 Ry

     The total energy is F=E-TS. E is the sum of the following terms:
     one-electron contribution =   -1483.41019867 Ry
     hartree contribution      =     868.69864575 Ry
     xc contribution           =    -368.40343284 Ry
     ewald contribution        =   -1547.82008911 Ry
     one-center paw contrib.   =    -957.75522932 Ry

     total magnetization       =    32.00 Bohr mag/cell
     absolute magnetization    =    32.10 Bohr mag/cell

     convergence has been achieved in  15 iterations

     negative rho (up, down):  0.000E+00 3.173E-03

     Forces acting on atoms (cartesian axes, Ry/au):

     atom    1 type  1   force =     0.00000000    0.00000000    0.00000000
     atom    2 type  1   force =     0.00000000   -0.00000000    0.00000000
     atom    3 type  1   force =     0.00000000    0.00000000    0.00000000
     atom    4 type  1   force =     0.00000000    0.00000000    0.00000000
     atom    5 type  1   force =    -0.00007506   -0.00000974    0.00000000
     atom    6 type  1   force =     0.00007506    0.00000974   -0.00000000
     atom    7 type  1   force =    -0.00007506    0.00000974   -0.00000000
     atom    8 type  1   force =     0.00007506   -0.00000974    0.00000000
     atom    9 type  2   force =    -0.00004028   -0.00002576    0.00000000
     atom   10 type  2   force =     0.00004028    0.00002576    0.00000000
     atom   11 type  2   force =    -0.00004028    0.00002576   -0.00000000
     atom   12 type  2   force =     0.00004028   -0.00002576   -0.00000000
     atom   13 type  3   force =     0.00000217   -0.00014303    0.00000000
     atom   14 type  3   force =    -0.00000217    0.00014303    0.00000000
     atom   15 type  3   force =     0.00000217    0.00014303   -0.00000000
     atom   16 type  3   force =    -0.00000217   -0.00014303    0.00000000
     atom   17 type  3   force =     0.00003532   -0.00002515    0.00000000
     atom   18 type  3   force =    -0.00003532    0.00002515    0.00000000
     atom   19 type  3   force =     0.00003532    0.00002515    0.00000000
     atom   20 type  3   force =    -0.00003532   -0.00002515   -0.00000000
     atom   21 type  3   force =     0.00006081   -0.00002243    0.00005408
     atom   22 type  3   force =    -0.00006081    0.00002243   -0.00005408
     atom   23 type  3   force =     0.00006081    0.00002243   -0.00005408
     atom   24 type  3   force =    -0.00006081   -0.00002243    0.00005408
     atom   25 type  3   force =    -0.00006081    0.00002243    0.00005408
     atom   26 type  3   force =     0.00006081   -0.00002243   -0.00005408
     atom   27 type  3   force =    -0.00006081   -0.00002243   -0.00005408
     atom   28 type  3   force =     0.00006081    0.00002243    0.00005408

     Total force =     0.000422     Total SCF correction =     0.000045
     SCF correction compared to forces is large: reduce conv_thr to get better values


     Computing stress (Cartesian axis) and pressure


     negative rho (up, down):  0.000E+00 3.173E-03
          total   stress  (Ry/bohr**3)                   (kbar)     P=       -0.03
   0.00000046   0.00000000   0.00000000            0.07        0.00        0.00
   0.00000000  -0.00000010   0.00000000            0.00       -0.01        0.00
   0.00000000   0.00000000  -0.00000106            0.00        0.00       -0.16

     Energy error            =      8.1E-07
     Gradient error          =      1.4E-04
     Cell gradient error     =      1.1E-06


     number of scf cycles    =  25
     number of bfgs steps    =  24

     enthalpy old            =   -3488.7009844157 Ry
     enthalpy new            =   -3488.7009852219 Ry

     CASE: enthalpy_new < enthalpy_old

     new trust radius        =       0.0005448086 bohr
     new conv_thr            =       0.0000000010 Ry

     new unit-cell volume =   2091.93747 a.u.^3 (   309.99315 Ang^3 )
     density =      4.36616 g/cm^3

CELL_PARAMETERS (angstrom)
   4.874984007   0.000000000   0.000000000
   0.000000000  10.494545553   0.000000000
   0.000000000   0.000000000   6.059199688

ATOMIC_POSITIONS (angstrom)
Fe            0.0000000000       -0.0000000000       -0.0000000000
Fe            2.4374920034        5.2472727764        0.0000000000
Fe           -0.0000000000        0.0000000000        3.0295998441
Fe            2.4374920034        5.2472727764        3.0295998441
Fe            0.0924282086        2.9280039694        4.5443997662
Fe            4.7825557982        7.5665415834        1.5147999221
Fe            2.5299202119        2.3192688070        1.5147999221
Fe            2.3450637948        8.1752767459        4.5443997662
Si            0.3436988537        4.2317753649        1.5147999221
Si            4.5312851530        6.2627701879        4.5443997662
Si            2.7811908571        1.0154974115        4.5443997662
Si            2.0937931496        9.4790481413        1.5147999221
O             1.1431022888        0.9914791086        4.5443997662
O             3.7318817179        9.5030664442        1.5147999221
O             3.5805942922        4.2557936678        1.5147999221
O             1.2943897146        6.2387518850        4.5443997662
O             1.4472361272        0.5208476085        1.5147999221
O             3.4277478795        9.9736979443        4.5443997662
O             3.8847281306        4.7264251679        4.5443997662
O             0.9902558761        5.7681203849        1.5147999221
O             1.0450963328        3.5024340829        2.8223191631
O             3.8298876739        6.9921114699        3.2368805252
O             3.4825883362        1.7448386935        3.2368805252
O             1.3923956705        8.7497068593        2.8223191631
O             3.8298876739        6.9921114699        5.8519190073
O             1.0450963328        3.5024340829        0.2072806810
O             1.3923956705        8.7497068593        0.2072806810
O             3.4825883362        1.7448386935        5.8519190073



     Writing output data file ./out/oliv.save/
     NEW-OLD atomic charge density approx. for the potential

     Check: negative core charge=   -0.000002

     negative rho (up, down):  0.000E+00 3.177E-03
     extrapolated charge  239.99146, renormalised to  240.00000
     Generating pointlists ...

     total cpu time spent up to now is    33757.8 secs

     Self-consistent Calculation

     iteration #  1     ecut=    60.00 Ry     beta= 0.30
     Davidson diagonalization with overlap
     ethr =  1.00E-06,  avg # of iterations =  2.0

     Threshold (ethr) on eigenvalues was too large:
     Diagonalizing with lowered threshold

     Davidson diagonalization with overlap
     ethr =  2.79E-09,  avg # of iterations =  5.9

     negative rho (up, down):  0.000E+00 3.177E-03

     total cpu time spent up to now is    33861.8 secs

     total energy              =   -3488.70097972 Ry
     estimated scf accuracy    <       0.00000742 Ry

     total magnetization       =    32.00 Bohr mag/cell
     absolute magnetization    =    32.10 Bohr mag/cell

     iteration #  2     ecut=    60.00 Ry     beta= 0.30
     Davidson diagonalization with overlap
     ethr =  3.09E-09,  avg # of iterations =  4.1

     negative rho (up, down):  0.000E+00 3.177E-03

     total cpu time spent up to now is    33914.9 secs

     total energy              =   -3488.70098230 Ry
     estimated scf accuracy    <       0.00005335 Ry

     total magnetization       =    32.00 Bohr mag/cell
     absolute magnetization    =    32.10 Bohr mag/cell

     iteration #  3     ecut=    60.00 Ry     beta= 0.30
     Davidson diagonalization with overlap
     ethr =  3.09E-09,  avg # of iterations =  2.0

     negative rho (up, down):  0.000E+00 3.177E-03

     total cpu time spent up to now is    33953.7 secs

     total energy              =   -3488.70098409 Ry
     estimated scf accuracy    <       0.00004598 Ry

     total magnetization       =    32.00 Bohr mag/cell
     absolute magnetization    =    32.10 Bohr mag/cell

     iteration #  4     ecut=    60.00 Ry     beta= 0.30
     Davidson diagonalization with overlap
     ethr =  3.09E-09,  avg # of iterations =  1.8

     negative rho (up, down):  0.000E+00 3.178E-03

     total cpu time spent up to now is    33992.0 secs

     total energy              =   -3488.70098534 Ry
     estimated scf accuracy    <       0.00000208 Ry

     total magnetization       =    32.00 Bohr mag/cell
     absolute magnetization    =    32.10 Bohr mag/cell

     iteration #  5     ecut=    60.00 Ry     beta= 0.30
     Davidson diagonalization with overlap
     ethr =  8.65E-10,  avg # of iterations =  2.0

     negative rho (up, down):  0.000E+00 3.178E-03

     total cpu time spent up to now is    34033.0 secs

     total energy              =   -3488.70098533 Ry
     estimated scf accuracy    <       0.00000066 Ry

     total magnetization       =    32.00 Bohr mag/cell
     absolute magnetization    =    32.10 Bohr mag/cell

     iteration #  6     ecut=    60.00 Ry     beta= 0.30
     Davidson diagonalization with overlap
     ethr =  2.75E-10,  avg # of iterations =  4.2

     negative rho (up, down):  0.000E+00 3.178E-03

     total cpu time spent up to now is    34082.9 secs

     total energy              =   -3488.70098557 Ry
     estimated scf accuracy    <       0.00000006 Ry

     total magnetization       =    32.00 Bohr mag/cell
     absolute magnetization    =    32.10 Bohr mag/cell

     iteration #  7     ecut=    60.00 Ry     beta= 0.30
     Davidson diagonalization with overlap
     ethr =  2.35E-11,  avg # of iterations =  4.8

     negative rho (up, down):  0.000E+00 3.178E-03

     total cpu time spent up to now is    34140.3 secs

     total energy              =   -3488.70098557 Ry
     estimated scf accuracy    <       0.00000010 Ry

     total magnetization       =    32.00 Bohr mag/cell
     absolute magnetization    =    32.10 Bohr mag/cell

     iteration #  8     ecut=    60.00 Ry     beta= 0.30
     Davidson diagonalization with overlap
     ethr =  2.35E-11,  avg # of iterations =  3.9

     negative rho (up, down):  0.000E+00 3.178E-03

     total cpu time spent up to now is    34198.8 secs

     total energy              =   -3488.70098559 Ry
     estimated scf accuracy    <       0.00000002 Ry

     total magnetization       =    32.00 Bohr mag/cell
     absolute magnetization    =    32.10 Bohr mag/cell

     iteration #  9     ecut=    60.00 Ry     beta= 0.30
     Davidson diagonalization with overlap
     ethr =  9.67E-12,  avg # of iterations =  4.8

     negative rho (up, down):  0.000E+00 3.178E-03

     total cpu time spent up to now is    34276.9 secs

     total energy              =   -3488.70098558 Ry
     estimated scf accuracy    <       0.00000010 Ry

     total magnetization       =    32.00 Bohr mag/cell
     absolute magnetization    =    32.10 Bohr mag/cell

     iteration # 10     ecut=    60.00 Ry     beta= 0.30
     Davidson diagonalization with overlap
     ethr =  9.67E-12,  avg # of iterations =  4.9

     negative rho (up, down):  0.000E+00 3.178E-03

     total cpu time spent up to now is    34383.5 secs

     total energy              =   -3488.70098558 Ry
     estimated scf accuracy    <       0.00000003 Ry

     total magnetization       =    32.00 Bohr mag/cell
     absolute magnetization    =    32.10 Bohr mag/cell

     iteration # 11     ecut=    60.00 Ry     beta= 0.30
     Davidson diagonalization with overlap
     ethr =  9.67E-12,  avg # of iterations =  3.4

     negative rho (up, down):  0.000E+00 3.178E-03

     total cpu time spent up to now is    34426.4 secs

     total energy              =   -3488.70098559 Ry
     estimated scf accuracy    <          1.4E-09 Ry

     total magnetization       =    32.00 Bohr mag/cell
     absolute magnetization    =    32.10 Bohr mag/cell

     iteration # 12     ecut=    60.00 Ry     beta= 0.30
     Davidson diagonalization with overlap
     ethr =  5.63E-13,  avg # of iterations =  6.4

     negative rho (up, down):  0.000E+00 3.178E-03

     total cpu time spent up to now is    34492.3 secs

     total energy              =   -3488.70098559 Ry
     estimated scf accuracy    <          4.6E-09 Ry

     total magnetization       =    32.00 Bohr mag/cell
     absolute magnetization    =    32.10 Bohr mag/cell

     iteration # 13     ecut=    60.00 Ry     beta= 0.30
     Davidson diagonalization with overlap
     ethr =  5.63E-13,  avg # of iterations =  6.1

     negative rho (up, down):  0.000E+00 3.178E-03

     Magnetic moment per site:
     atom:    1    charge:   13.3639    magn:    3.3186    constr:    0.0000
     atom:    2    charge:   13.3639    magn:    3.3186    constr:    0.0000
     atom:    3    charge:   13.3639    magn:    3.3186    constr:    0.0000
     atom:    4    charge:   13.3639    magn:    3.3186    constr:    0.0000
     atom:    5    charge:   13.3277    magn:    3.4146    constr:    0.0000
     atom:    6    charge:   13.3277    magn:    3.4146    constr:    0.0000
     atom:    7    charge:   13.3277    magn:    3.4146    constr:    0.0000
     atom:    8    charge:   13.3277    magn:    3.4146    constr:    0.0000
     atom:    9    charge:    0.3879    magn:    0.0043    constr:    0.0000
     atom:   10    charge:    0.3879    magn:    0.0043    constr:    0.0000
     atom:   11    charge:    0.3879    magn:    0.0043    constr:    0.0000
     atom:   12    charge:    0.3879    magn:    0.0043    constr:    0.0000
     atom:   13    charge:    4.0296    magn:    0.1039    constr:    0.0000
     atom:   14    charge:    4.0296    magn:    0.1039    constr:    0.0000
     atom:   15    charge:    4.0296    magn:    0.1039    constr:    0.0000
     atom:   16    charge:    4.0296    magn:    0.1039    constr:    0.0000
     atom:   17    charge:    4.0232    magn:    0.1179    constr:    0.0000
     atom:   18    charge:    4.0232    magn:    0.1179    constr:    0.0000
     atom:   19    charge:    4.0232    magn:    0.1179    constr:    0.0000
     atom:   20    charge:    4.0232    magn:    0.1179    constr:    0.0000
     atom:   21    charge:    4.0206    magn:    0.1200    constr:    0.0000
     atom:   22    charge:    4.0206    magn:    0.1200    constr:    0.0000
     atom:   23    charge:    4.0206    magn:    0.1200    constr:    0.0000
     atom:   24    charge:    4.0206    magn:    0.1200    constr:    0.0000
     atom:   25    charge:    4.0206    magn:    0.1200    constr:    0.0000
     atom:   26    charge:    4.0206    magn:    0.1200    constr:    0.0000
     atom:   27    charge:    4.0206    magn:    0.1200    constr:    0.0000
     atom:   28    charge:    4.0206    magn:    0.1200    constr:    0.0000

     total cpu time spent up to now is    34561.2 secs

     End of self-consistent calculation

 ------ SPIN UP ------------


          k = 0.0000 0.0000 0.0000 ( 15339 PWs)   bands (ev):

   -79.3403 -79.3403 -79.3403 -79.3403 -79.1186 -79.1186 -79.1167 -79.1167
   -46.0112 -46.0112 -46.0099 -46.0099 -45.6228 -45.6228 -45.6168 -45.6168
   -45.2804 -45.2803 -45.2801 -45.2801 -45.0780 -45.0779 -45.0756 -45.0755
   -44.8628 -44.8628 -44.8620 -44.8619 -44.8504 -44.8503 -44.8225 -44.8225
   -11.3629 -11.1384 -10.9068 -10.7520  -9.7624  -9.7286  -9.7206  -9.6679
    -9.6448  -9.5299  -9.4852  -9.4640  -9.4486  -9.3994  -9.3771  -9.3139
     1.0460   1.0697   1.5483   1.5656   1.6427   1.7099   2.3192   2.3217
     2.3256   2.8187   2.9375   2.9976   3.1168   3.5814   3.7269   3.7846
     3.9983   4.0604   4.0696   4.1299   4.2635   4.3570   4.3655   4.4248
     4.4292   4.5197   4.5361   4.5373   4.6193   4.6808   4.7263   4.7582
     4.8320   4.9469   4.9734   4.9964   5.1751   5.2058   5.3325   5.3601
     5.3907   5.6609   5.9857   6.0005   6.0209   6.1801   6.1814   6.3622
     6.7545   6.9972   7.0304   7.0463   7.1020   7.1421   7.1760   7.3135
     7.3609   7.3868   7.3929   7.5133   7.5323   7.5631   7.8196   7.8352
     7.8571   7.9812   8.0015   8.0373   8.0627   8.0751   8.0950   8.2020
     8.3295   8.3348   8.3443   8.3984   8.6006   8.7298   8.8782   8.9280
     8.9616   9.0270   9.2108   9.2481   9.2876   9.4095   9.4312   9.6093
    11.3644  13.3473  13.9180  15.2408  15.7770  16.2624  16.3253  16.3597

          k = 0.0000 0.0000-0.3923 ( 15392 PWs)   bands (ev):

   -79.3403 -79.3403 -79.3403 -79.3403 -79.1177 -79.1177 -79.1177 -79.1177
   -46.0106 -46.0106 -46.0106 -46.0106 -45.6198 -45.6198 -45.6198 -45.6198
   -45.2802 -45.2802 -45.2802 -45.2802 -45.0767 -45.0767 -45.0767 -45.0767
   -44.8624 -44.8624 -44.8624 -44.8624 -44.8365 -44.8365 -44.8365 -44.8365
   -11.0796 -11.0796 -10.9918 -10.9918  -9.7387  -9.7387  -9.7092  -9.7092
    -9.6598  -9.6598  -9.4742  -9.4742  -9.4098  -9.4098  -9.3152  -9.3152
     1.3241   1.3241   1.4038   1.4038   2.0648   2.0648   2.1354   2.1354
     2.7457   2.7457   3.2141   3.2141   3.4424   3.4424   3.6928   3.6928
     3.7402   3.7402   3.9789   3.9789   4.1488   4.1488   4.3559   4.3559
     4.4156   4.4156   4.5030   4.5030   4.7088   4.7088   4.7491   4.7491
     4.8388   4.8388   5.0405   5.0405   5.1149   5.1149   5.4601   5.4601
     5.6220   5.6220   5.6773   5.6773   5.8052   5.8052   5.9230   5.9230
     7.0506   7.0506   7.0549   7.0549   7.1896   7.1896   7.1988   7.1988
     7.4878   7.4878   7.5319   7.5319   7.5990   7.5990   7.7474   7.7474
     8.0130   8.0130   8.0328   8.0328   8.0934   8.0934   8.1415   8.1415
     8.4150   8.4150   8.5162   8.5162   8.7286   8.7286   8.7539   8.7539
     8.8805   8.8805   8.8973   8.8973   9.1912   9.1912   9.4443   9.4443
    13.2848  13.2848  14.4117  14.4117  15.1273  15.1273  16.6324  16.6325

          k =-0.4876 0.0000 0.0000 ( 15374 PWs)   bands (ev):

   -79.3403 -79.3403 -79.3403 -79.3403 -79.1186 -79.1186 -79.1167 -79.1167
   -46.0106 -46.0106 -46.0106 -46.0106 -45.6228 -45.6228 -45.6168 -45.6168
   -45.2802 -45.2802 -45.2802 -45.2802 -45.0779 -45.0779 -45.0755 -45.0755
   -44.8624 -44.8624 -44.8623 -44.8623 -44.8503 -44.8503 -44.8225 -44.8225
   -10.9802 -10.9802 -10.7123 -10.7123 -10.0915 -10.0915  -9.8675  -9.8675
    -9.5965  -9.5965  -9.4237  -9.4237  -9.4106  -9.4106  -9.3823  -9.3823
     1.1115   1.1115   1.2153   1.2153   2.6731   2.6731   2.7664   2.7664
     2.9832   2.9832   3.0165   3.0165   3.2756   3.2756   3.3370   3.3370
     3.5587   3.5587   3.5784   3.5784   3.7440   3.7440   4.2512   4.2512
     4.3585   4.3585   4.4243   4.4243   4.8347   4.8347   4.9060   4.9060
     4.9761   4.9761   5.1067   5.1067   5.2438   5.2438   5.5465   5.5465
     5.6313   5.6313   5.8004   5.8004   6.0033   6.0033   6.6773   6.6773
     6.9928   6.9928   7.0503   7.0503   7.1328   7.1328   7.2248   7.2248
     7.2858   7.2858   7.3237   7.3237   7.4769   7.4769   7.7572   7.7572
     7.8335   7.8335   8.0439   8.0439   8.1353   8.1353   8.1961   8.1961
     8.5128   8.5128   8.7277   8.7277   8.7393   8.7393   8.8424   8.8424
     8.9470   8.9470   9.0089   9.0089   9.1710   9.1710   9.3764   9.3764
    13.9385  13.9385  14.8086  14.8086  15.2076  15.2076  15.4956  15.4956

          k =-0.4876 0.0000-0.3923 ( 15436 PWs)   bands (ev):

   -79.3404 -79.3404 -79.3404 -79.3404 -79.1177 -79.1177 -79.1177 -79.1177
   -46.0106 -46.0106 -46.0106 -46.0106 -45.6198 -45.6198 -45.6198 -45.6198
   -45.2803 -45.2803 -45.2802 -45.2802 -45.0768 -45.0768 -45.0767 -45.0767
   -44.8624 -44.8624 -44.8624 -44.8624 -44.8365 -44.8365 -44.8365 -44.8365
   -10.8441 -10.8441 -10.8126 -10.8126  -9.9882  -9.9882  -9.9814  -9.9814
    -9.5876  -9.5876  -9.5188  -9.5188  -9.3876  -9.3876  -9.3746  -9.3746
     1.2708   1.2708   1.2756   1.2756   2.7252   2.7252   2.8942   2.8942
     3.0626   3.0626   3.1511   3.1511   3.1708   3.1708   3.3839   3.3839
     3.5207   3.5207   3.6309   3.6309   3.7408   3.7408   3.8465   3.8465
     4.2843   4.2843   4.5705   4.5705   4.9983   4.9983   5.0698   5.0698
     5.1581   5.1581   5.2498   5.2498   5.2623   5.2623   5.3047   5.3047
     5.5086   5.5086   5.5983   5.5983   5.8833   5.8833   6.0426   6.0426
     7.0280   7.0280   7.1307   7.1307   7.2665   7.2665   7.2770   7.2770
     7.3144   7.3144   7.4449   7.4449   7.6819   7.6819   7.7009   7.7009
     7.7819   7.7819   7.9200   7.9200   7.9837   7.9837   8.0877   8.0877
     8.4266   8.4266   8.4290   8.4290   8.4435   8.4435   8.8094   8.8094
     8.9737   8.9737   9.0350   9.0350   9.1631   9.1631   9.5761   9.5761
    14.9117  14.9117  14.9819  14.9819  15.7689  15.7978  15.7987  15.8387

 ------ SPIN DOWN ----------


          k = 0.0000 0.0000 0.0000 ( 15339 PWs)   bands (ev):

   -75.1161 -75.1161 -75.1159 -75.1158 -75.0408 -75.0407 -75.0387 -75.0386
   -41.4357 -41.4357 -41.4337 -41.4337 -41.3129 -41.3129 -41.3046 -41.3046
   -41.2557 -41.2554 -41.2549 -41.2549 -41.1853 -41.1849 -41.1815 -41.1814
   -41.1122 -41.1121 -41.0897 -41.0897 -41.0888 -41.0886 -41.0788 -41.0788
   -11.1473 -10.9262 -10.6934 -10.5414  -9.5424  -9.5003  -9.4895  -9.4379
    -9.4061  -9.2804  -9.2413  -9.2173  -9.1941  -9.1483  -9.1215  -9.0610
     1.3137   1.3232   1.7633   1.8471   1.9073   2.0740   2.6668   2.6827
     2.7563   3.2082   3.2811   3.3473   3.5064   4.0212   4.0490   4.0896
     4.4370   4.6013   4.7615   4.8169   4.8178   4.9273   4.9481   4.9483
     4.9920   5.1015   5.1447   5.1460   5.3505   5.3684   5.4718   5.4986
     5.5517   5.5775   5.6743   5.7063   5.7802   5.7988   5.8551   5.9633
     6.2048   6.3522   6.4354   6.4611   6.6430   6.6678   6.7294   6.9105
     9.8609   9.9100  10.2219  10.2257  10.3301  10.3634  10.4149  10.4349
    10.4415  10.5487  10.6234  10.8480  10.9279  10.9513  10.9670  10.9735
    11.0013  11.0655  11.0818  11.1883  11.1885  11.1937  11.3637  11.3729
    11.8552  11.8940  11.9231  11.9859  11.9873  12.1612  12.1986  12.2769
    12.3094  12.3141  12.3502  12.4327  12.4547  12.4705  12.5332  12.7745
    12.7814  13.9286  14.4284  15.6750  16.1344  16.7185  16.7461  16.7821

          k = 0.0000 0.0000-0.3923 ( 15392 PWs)   bands (ev):

   -75.1161 -75.1161 -75.1160 -75.1160 -75.0398 -75.0398 -75.0398 -75.0398
   -41.4348 -41.4348 -41.4348 -41.4348 -41.3087 -41.3087 -41.3086 -41.3086
   -41.2553 -41.2553 -41.2551 -41.2551 -41.1833 -41.1833 -41.1832 -41.1832
   -41.0960 -41.0960 -41.0957 -41.0957 -41.0892 -41.0892 -41.0890 -41.0890
   -10.8657 -10.8657 -10.7801 -10.7801  -9.5040  -9.5040  -9.4844  -9.4844
    -9.4197  -9.4197  -9.2266  -9.2266  -9.1579  -9.1579  -9.0634  -9.0634
     1.5816   1.5816   1.6502   1.6502   2.4382   2.4382   2.4842   2.4842
     3.1119   3.1119   3.5490   3.5490   3.8154   3.8154   4.0550   4.0550
     4.2565   4.2565   4.5401   4.5401   4.7695   4.7695   4.8673   4.8673
     4.9553   4.9553   5.1392   5.1392   5.3455   5.3455   5.3718   5.3718
     5.6261   5.6261   5.7527   5.7527   5.8351   5.8351   6.0412   6.0412
     6.0844   6.0844   6.1628   6.1628   6.5547   6.5547   6.6802   6.6802
    10.3039  10.3039  10.3325  10.3325  10.3974  10.3974  10.4063  10.4063
    10.6140  10.6140  10.7205  10.7205  10.8515  10.8515  10.8814  10.8814
    10.9773  10.9773  11.0113  11.0113  11.1993  11.1993  11.2943  11.2943
    11.7835  11.7835  11.9076  11.9076  12.1675  12.1675  12.1727  12.1727
    12.3308  12.3308  12.3711  12.3711  12.5539  12.5539  12.6249  12.6249
    13.9022  13.9022  14.9266  14.9266  15.6359  15.6359  16.9878  16.9878

          k =-0.4876 0.0000 0.0000 ( 15374 PWs)   bands (ev):

   -75.1161 -75.1161 -75.1159 -75.1159 -75.0409 -75.0409 -75.0386 -75.0386
   -41.4348 -41.4348 -41.4347 -41.4347 -41.3130 -41.3130 -41.3046 -41.3046
   -41.2553 -41.2553 -41.2550 -41.2550 -41.1851 -41.1851 -41.1814 -41.1814
   -41.1122 -41.1122 -41.0892 -41.0892 -41.0892 -41.0892 -41.0788 -41.0788
   -10.7683 -10.7683 -10.4930 -10.4930  -9.8676  -9.8676  -9.6453  -9.6453
    -9.3475  -9.3475  -9.1705  -9.1705  -9.1614  -9.1614  -9.1372  -9.1372
     1.4056   1.4056   1.4519   1.4519   3.0059   3.0059   3.0830   3.0830
     3.3969   3.3969   3.4152   3.4152   3.7003   3.7003   3.7727   3.7727
     3.9809   3.9809   4.0821   4.0821   4.1316   4.1316   4.6123   4.6123
     4.9741   4.9741   5.0926   5.0926   5.5471   5.5471   5.6707   5.6707
     5.8113   5.8113   5.8493   5.8493   6.0480   6.0480   6.1147   6.1147
     6.2954   6.2954   6.4443   6.4443   6.5586   6.5586   7.0751   7.0751
     9.8966   9.8966  10.1437  10.1437  10.3496  10.3496  10.4540  10.4540
    10.5772  10.5772  10.6971  10.6971  10.9942  10.9942  11.0068  11.0068
    11.0792  11.0792  11.1422  11.1422  11.1679  11.1679  11.4218  11.4218
    11.8894  11.8894  12.0048  12.0048  12.0546  12.0546  12.1690  12.1690
    12.2137  12.2137  12.4094  12.4094  12.4628  12.4628  12.6451  12.6451
    14.3860  14.3860  15.1510  15.1510  15.7873  15.7873  16.0865  16.0865

          k =-0.4876 0.0000-0.3923 ( 15436 PWs)   bands (ev):

   -75.1161 -75.1161 -75.1160 -75.1160 -75.0398 -75.0398 -75.0398 -75.0398
   -41.4348 -41.4348 -41.4348 -41.4348 -41.3087 -41.3087 -41.3086 -41.3086
   -41.2553 -41.2553 -41.2550 -41.2550 -41.1833 -41.1833 -41.1831 -41.1831
   -41.0960 -41.0960 -41.0957 -41.0957 -41.0892 -41.0892 -41.0890 -41.0890
   -10.6293 -10.6293 -10.5978 -10.5978  -9.7656  -9.7656  -9.7562  -9.7562
    -9.3389  -9.3389  -9.2704  -9.2704  -9.1360  -9.1360  -9.1272  -9.1272
     1.5381   1.5381   1.5682   1.5682   3.1197   3.1197   3.3026   3.3026
     3.4449   3.4449   3.5528   3.5528   3.5753   3.5753   3.7317   3.7317
     3.9838   3.9838   4.0321   4.0321   4.3065   4.3065   4.3380   4.3380
     4.7093   4.7093   5.0572   5.0572   5.5317   5.5317   5.5582   5.5582
     5.7835   5.7835   5.8813   5.8813   6.1523   6.1523   6.1883   6.1883
     6.2726   6.2726   6.3274   6.3274   6.4552   6.4552   6.6656   6.6656
    10.2262  10.2262  10.2450  10.2450  10.4149  10.4149  10.4401  10.4401
    10.6936  10.6936  10.7175  10.7175  10.8975  10.8975  10.8978  10.8978
    11.0349  11.0349  11.1046  11.1046  11.1528  11.1528  11.2186  11.2186
    11.7223  11.7223  11.7567  11.7567  11.9729  11.9729  12.0384  12.0384
    12.1867  12.1867  12.3250  12.3250  12.4987  12.4987  12.8075  12.8075
    15.3543  15.3543  15.5056  15.5056  16.2736  16.2736  16.2892  16.2892

     the Fermi energy is    10.5162 ev

!    total energy              =   -3488.70098559 Ry

     total all-electron energy =    -25094.006953 Ry
     estimated scf accuracy    <          3.4E-10 Ry
     smearing contrib. (-TS)   =      -0.01068113 Ry
     internal energy E=F+TS    =   -3488.69030446 Ry

     The total energy is F=E-TS. E is the sum of the following terms:
     one-electron contribution =   -1483.39997295 Ry
     hartree contribution      =     868.69877613 Ry
     xc contribution           =    -368.40376411 Ry
     ewald contribution        =   -1547.83012202 Ry
     one-center paw contrib.   =    -957.75522150 Ry

     total magnetization       =    32.00 Bohr mag/cell
     absolute magnetization    =    32.10 Bohr mag/cell

     convergence has been achieved in  13 iterations

     negative rho (up, down):  0.000E+00 3.178E-03

     Forces acting on atoms (cartesian axes, Ry/au):

     atom    1 type  1   force =     0.00000000    0.00000000    0.00000000
     atom    2 type  1   force =     0.00000000    0.00000000   -0.00000000
     atom    3 type  1   force =     0.00000000    0.00000000    0.00000000
     atom    4 type  1   force =     0.00000000    0.00000000    0.00000000
     atom    5 type  1   force =    -0.00005741   -0.00000497    0.00000000
     atom    6 type  1   force =     0.00005741    0.00000497   -0.00000000
     atom    7 type  1   force =    -0.00005741    0.00000497    0.00000000
     atom    8 type  1   force =     0.00005741   -0.00000497    0.00000000
     atom    9 type  2   force =     0.00004439   -0.00002652   -0.00000000
     atom   10 type  2   force =    -0.00004439    0.00002652   -0.00000000
     atom   11 type  2   force =     0.00004439    0.00002652    0.00000000
     atom   12 type  2   force =    -0.00004439   -0.00002652    0.00000000
     atom   13 type  3   force =     0.00003930   -0.00010782    0.00000000
     atom   14 type  3   force =    -0.00003930    0.00010782    0.00000000
     atom   15 type  3   force =     0.00003930    0.00010782    0.00000000
     atom   16 type  3   force =    -0.00003930   -0.00010782    0.00000000
     atom   17 type  3   force =     0.00005781   -0.00000991   -0.00000000
     atom   18 type  3   force =    -0.00005781    0.00000991    0.00000000
     atom   19 type  3   force =     0.00005781    0.00000991    0.00000000
     atom   20 type  3   force =    -0.00005781   -0.00000991    0.00000000
     atom   21 type  3   force =     0.00001692   -0.00002536    0.00008575
     atom   22 type  3   force =    -0.00001692    0.00002536   -0.00008575
     atom   23 type  3   force =     0.00001692    0.00002536   -0.00008575
     atom   24 type  3   force =    -0.00001692   -0.00002536    0.00008575
     atom   25 type  3   force =    -0.00001692    0.00002536    0.00008575
     atom   26 type  3   force =     0.00001692   -0.00002536   -0.00008575
     atom   27 type  3   force =    -0.00001692   -0.00002536   -0.00008575
     atom   28 type  3   force =     0.00001692    0.00002536    0.00008575

     Total force =     0.000396     Total SCF correction =     0.000021


     Computing stress (Cartesian axis) and pressure


     negative rho (up, down):  0.000E+00 3.178E-03
          total   stress  (Ry/bohr**3)                   (kbar)     P=        0.01
   0.00000024   0.00000000   0.00000000            0.04        0.00        0.00
   0.00000000   0.00000029   0.00000000            0.00        0.04        0.00
   0.00000000   0.00000000  -0.00000039            0.00        0.00       -0.06

     Energy error            =      3.7E-07
     Gradient error          =      1.1E-04
     Cell gradient error     =      3.9E-07


     number of scf cycles    =  26
     number of bfgs steps    =  25

     enthalpy old            =   -3488.7009852219 Ry
     enthalpy new            =   -3488.7009855879 Ry

     CASE: enthalpy_new < enthalpy_old

     new trust radius        =       0.0005257597 bohr
     new conv_thr            =       0.0000000010 Ry

     new unit-cell volume =   2091.88984 a.u.^3 (   309.98609 Ang^3 )
     density =      4.36626 g/cm^3

CELL_PARAMETERS (angstrom)
   4.875145891   0.000000000   0.000000000
   0.000000000  10.494561337   0.000000000
   0.000000000   0.000000000   6.058851433

ATOMIC_POSITIONS (angstrom)
Fe            0.0000000000       -0.0000000000       -0.0000000000
Fe            2.4375729453        5.2472806685        0.0000000000
Fe           -0.0000000000        0.0000000000        3.0294257163
Fe            2.4375729453        5.2472806685        3.0294257163
Fe            0.0922313802        2.9279559905        4.5441385745
Fe            4.7829145104        7.5666053465        1.5147128582
Fe            2.5298043254        2.3193246780        1.5147128582
Fe            2.3453415651        8.1752366590        4.5441385745
Si            0.3436380285        4.2317656505        1.5147128582
Si            4.5315078620        6.2627956865        4.5441385745
Si            2.7812109738        1.0155150180        4.5441385745
Si            2.0939349167        9.4790463191        1.5147128582
O             1.1431173911        0.9912839575        4.5441385745
O             3.7320284994        9.5032773795        1.5147128582
O             3.5806903364        4.2559967110        1.5147128582
O             1.2944555541        6.2385646260        4.5441385745
O             1.4473440398        0.5208151752        1.5147128582
O             3.4278018507        9.9737461618        4.5441385745
O             3.8849169851        4.7264654933        4.5441385745
O             0.9902289054        5.7680958437        1.5147128582
O             1.0451494110        3.5023947047        2.8221950421
O             3.8299964795        6.9921666323        3.2366563906
O             3.4827223563        1.7448859638        3.2366563906
O             1.3924235342        8.7496753733        2.8221950421
O             3.8299964795        6.9921666323        5.8516207584
O             1.0451494110        3.5023947047        0.2072306742
O             1.3924235342        8.7496753733        0.2072306742
O             3.4827223563        1.7448859638        5.8516207584



     Writing output data file ./out/oliv.save/
     NEW-OLD atomic charge density approx. for the potential

     Check: negative core charge=   -0.000002

     negative rho (up, down):  0.000E+00 3.182E-03
     extrapolated charge  239.99454, renormalised to  240.00000
     Generating pointlists ...

     total cpu time spent up to now is    34607.0 secs

     Self-consistent Calculation

     iteration #  1     ecut=    60.00 Ry     beta= 0.30
     Davidson diagonalization with overlap
     ethr =  1.00E-06,  avg # of iterations =  2.0

     Threshold (ethr) on eigenvalues was too large:
     Diagonalizing with lowered threshold

     Davidson diagonalization with overlap
     ethr =  1.49E-09,  avg # of iterations =  7.4

     negative rho (up, down):  0.000E+00 3.181E-03

     total cpu time spent up to now is    34742.0 secs

     total energy              =   -3488.70098315 Ry
     estimated scf accuracy    <       0.00000366 Ry

     total magnetization       =    32.00 Bohr mag/cell
     absolute magnetization    =    32.10 Bohr mag/cell

     iteration #  2     ecut=    60.00 Ry     beta= 0.30
     Davidson diagonalization with overlap
     ethr =  1.53E-09,  avg # of iterations =  4.2

     negative rho (up, down):  0.000E+00 3.181E-03

     total cpu time spent up to now is    34788.2 secs

     total energy              =   -3488.70098357 Ry
     estimated scf accuracy    <       0.00004829 Ry

     total magnetization       =    32.00 Bohr mag/cell
     absolute magnetization    =    32.10 Bohr mag/cell

     iteration #  3     ecut=    60.00 Ry     beta= 0.30
     Davidson diagonalization with overlap
     ethr =  1.53E-09,  avg # of iterations =  2.0

     negative rho (up, down):  0.000E+00 3.182E-03

     total cpu time spent up to now is    34821.4 secs

     total energy              =   -3488.70098536 Ry
     estimated scf accuracy    <       0.00001216 Ry

     total magnetization       =    32.00 Bohr mag/cell
     absolute magnetization    =    32.10 Bohr mag/cell

     iteration #  4     ecut=    60.00 Ry     beta= 0.30
     Davidson diagonalization with overlap
     ethr =  1.53E-09,  avg # of iterations =  1.6

     negative rho (up, down):  0.000E+00 3.182E-03

     total cpu time spent up to now is    34854.1 secs

     total energy              =   -3488.70098566 Ry
     estimated scf accuracy    <       0.00000089 Ry

     total magnetization       =    32.00 Bohr mag/cell
     absolute magnetization    =    32.10 Bohr mag/cell

     iteration #  5     ecut=    60.00 Ry     beta= 0.30
     Davidson diagonalization with overlap
     ethr =  3.72E-10,  avg # of iterations =  2.0

     negative rho (up, down):  0.000E+00 3.182E-03

     total cpu time spent up to now is    34895.4 secs

     total energy              =   -3488.70098575 Ry
     estimated scf accuracy    <       0.00000021 Ry

     total magnetization       =    32.00 Bohr mag/cell
     absolute magnetization    =    32.10 Bohr mag/cell

     iteration #  6     ecut=    60.00 Ry     beta= 0.30
     Davidson diagonalization with overlap
     ethr =  8.77E-11,  avg # of iterations =  4.4

     negative rho (up, down):  0.000E+00 3.182E-03

     total cpu time spent up to now is    34950.8 secs

     total energy              =   -3488.70098585 Ry
     estimated scf accuracy    <       0.00000007 Ry

     total magnetization       =    32.00 Bohr mag/cell
     absolute magnetization    =    32.10 Bohr mag/cell

     iteration #  7     ecut=    60.00 Ry     beta= 0.30
     Davidson diagonalization with overlap
     ethr =  3.02E-11,  avg # of iterations =  2.0

     negative rho (up, down):  0.000E+00 3.182E-03

     total cpu time spent up to now is    34993.1 secs

     total energy              =   -3488.70098585 Ry
     estimated scf accuracy    <       0.00000003 Ry

     total magnetization       =    32.00 Bohr mag/cell
     absolute magnetization    =    32.10 Bohr mag/cell

     iteration #  8     ecut=    60.00 Ry     beta= 0.30
     Davidson diagonalization with overlap
     ethr =  1.34E-11,  avg # of iterations =  4.8

     negative rho (up, down):  0.000E+00 3.182E-03

     total cpu time spent up to now is    35058.5 secs

     total energy              =   -3488.70098587 Ry
     estimated scf accuracy    <       0.00000005 Ry

     total magnetization       =    32.00 Bohr mag/cell
     absolute magnetization    =    32.10 Bohr mag/cell

     iteration #  9     ecut=    60.00 Ry     beta= 0.30
     Davidson diagonalization with overlap
     ethr =  1.34E-11,  avg # of iterations =  1.6

     negative rho (up, down):  0.000E+00 3.182E-03

     total cpu time spent up to now is    35093.3 secs

     total energy              =   -3488.70098586 Ry
     estimated scf accuracy    <       0.00000003 Ry

     total magnetization       =    32.00 Bohr mag/cell
     absolute magnetization    =    32.10 Bohr mag/cell

     iteration # 10     ecut=    60.00 Ry     beta= 0.30
     Davidson diagonalization with overlap
     ethr =  1.15E-11,  avg # of iterations =  2.0

     negative rho (up, down):  0.000E+00 3.182E-03

     total cpu time spent up to now is    35136.7 secs

     total energy              =   -3488.70098586 Ry
     estimated scf accuracy    <          7.3E-09 Ry

     total magnetization       =    32.00 Bohr mag/cell
     absolute magnetization    =    32.10 Bohr mag/cell

     iteration # 11     ecut=    60.00 Ry     beta= 0.30
     Davidson diagonalization with overlap
     ethr =  3.06E-12,  avg # of iterations =  4.4

     negative rho (up, down):  0.000E+00 3.182E-03

     total cpu time spent up to now is    35190.4 secs

     total energy              =   -3488.70098586 Ry
     estimated scf accuracy    <          1.1E-09 Ry

     total magnetization       =    32.00 Bohr mag/cell
     absolute magnetization    =    32.10 Bohr mag/cell

     iteration # 12     ecut=    60.00 Ry     beta= 0.30
     Davidson diagonalization with overlap
     ethr =  4.38E-13,  avg # of iterations =  5.4

     negative rho (up, down):  0.000E+00 3.182E-03

     total cpu time spent up to now is    35240.6 secs

     total energy              =   -3488.70098586 Ry
     estimated scf accuracy    <          1.1E-09 Ry

     total magnetization       =    32.00 Bohr mag/cell
     absolute magnetization    =    32.10 Bohr mag/cell

     iteration # 13     ecut=    60.00 Ry     beta= 0.30
     Davidson diagonalization with overlap
     ethr =  4.38E-13,  avg # of iterations =  6.8

     negative rho (up, down):  0.000E+00 3.182E-03

     total cpu time spent up to now is    35325.5 secs

     total energy              =   -3488.70098586 Ry
     estimated scf accuracy    <          6.6E-09 Ry

     total magnetization       =    32.00 Bohr mag/cell
     absolute magnetization    =    32.10 Bohr mag/cell

     iteration # 14     ecut=    60.00 Ry     beta= 0.30
     Davidson diagonalization with overlap
     ethr =  4.38E-13,  avg # of iterations =  5.9

     negative rho (up, down):  0.000E+00 3.182E-03

     Magnetic moment per site:
     atom:    1    charge:   13.3639    magn:    3.3185    constr:    0.0000
     atom:    2    charge:   13.3639    magn:    3.3185    constr:    0.0000
     atom:    3    charge:   13.3639    magn:    3.3185    constr:    0.0000
     atom:    4    charge:   13.3639    magn:    3.3185    constr:    0.0000
     atom:    5    charge:   13.3277    magn:    3.4146    constr:    0.0000
     atom:    6    charge:   13.3277    magn:    3.4146    constr:    0.0000
     atom:    7    charge:   13.3277    magn:    3.4146    constr:    0.0000
     atom:    8    charge:   13.3277    magn:    3.4146    constr:    0.0000
     atom:    9    charge:    0.3879    magn:    0.0043    constr:    0.0000
     atom:   10    charge:    0.3879    magn:    0.0043    constr:    0.0000
     atom:   11    charge:    0.3879    magn:    0.0043    constr:    0.0000
     atom:   12    charge:    0.3879    magn:    0.0043    constr:    0.0000
     atom:   13    charge:    4.0295    magn:    0.1039    constr:    0.0000
     atom:   14    charge:    4.0295    magn:    0.1039    constr:    0.0000
     atom:   15    charge:    4.0295    magn:    0.1039    constr:    0.0000
     atom:   16    charge:    4.0295    magn:    0.1039    constr:    0.0000
     atom:   17    charge:    4.0232    magn:    0.1180    constr:    0.0000
     atom:   18    charge:    4.0232    magn:    0.1180    constr:    0.0000
     atom:   19    charge:    4.0232    magn:    0.1180    constr:    0.0000
     atom:   20    charge:    4.0232    magn:    0.1180    constr:    0.0000
     atom:   21    charge:    4.0206    magn:    0.1200    constr:    0.0000
     atom:   22    charge:    4.0206    magn:    0.1200    constr:    0.0000
     atom:   23    charge:    4.0206    magn:    0.1200    constr:    0.0000
     atom:   24    charge:    4.0206    magn:    0.1200    constr:    0.0000
     atom:   25    charge:    4.0206    magn:    0.1200    constr:    0.0000
     atom:   26    charge:    4.0206    magn:    0.1200    constr:    0.0000
     atom:   27    charge:    4.0206    magn:    0.1200    constr:    0.0000
     atom:   28    charge:    4.0206    magn:    0.1200    constr:    0.0000

     total cpu time spent up to now is    35396.7 secs

     End of self-consistent calculation

 ------ SPIN UP ------------


          k = 0.0000 0.0000 0.0000 ( 15339 PWs)   bands (ev):

   -79.3399 -79.3399 -79.3399 -79.3398 -79.1181 -79.1181 -79.1162 -79.1162
   -46.0108 -46.0107 -46.0095 -46.0094 -45.6224 -45.6224 -45.6163 -45.6163
   -45.2800 -45.2800 -45.2798 -45.2798 -45.0775 -45.0774 -45.0751 -45.0750
   -44.8622 -44.8622 -44.8615 -44.8614 -44.8499 -44.8498 -44.8220 -44.8220
   -11.3626 -11.1381 -10.9064 -10.7516  -9.7622  -9.7283  -9.7204  -9.6678
    -9.6446  -9.5294  -9.4849  -9.4636  -9.4482  -9.3991  -9.3767  -9.3135
     1.0459   1.0698   1.5484   1.5660   1.6430   1.7101   2.3195   2.3218
     2.3259   2.8188   2.9379   2.9979   3.1171   3.5818   3.7271   3.7852
     3.9986   4.0604   4.0700   4.1303   4.2633   4.3575   4.3657   4.4253
     4.4295   4.5199   4.5363   4.5375   4.6197   4.6810   4.7262   4.7587
     4.8325   4.9472   4.9738   4.9965   5.1752   5.2060   5.3326   5.3606
     5.3910   5.6615   5.9863   6.0009   6.0213   6.1806   6.1818   6.3626
     6.7549   6.9976   7.0308   7.0468   7.1024   7.1425   7.1766   7.3141
     7.3613   7.3873   7.3932   7.5134   7.5327   7.5633   7.8199   7.8357
     7.8577   7.9815   8.0021   8.0377   8.0632   8.0755   8.0957   8.2025
     8.3303   8.3353   8.3447   8.3987   8.6011   8.7304   8.8786   8.9286
     8.9621   9.0277   9.2113   9.2492   9.2882   9.4104   9.4314   9.6096
    11.3648  13.3478  13.9181  15.2421  15.7777  16.2632  16.3253  16.3595

          k = 0.0000 0.0000-0.3923 ( 15392 PWs)   bands (ev):

   -79.3399 -79.3399 -79.3399 -79.3399 -79.1172 -79.1172 -79.1172 -79.1172
   -46.0102 -46.0102 -46.0102 -46.0102 -45.6194 -45.6194 -45.6193 -45.6193
   -45.2799 -45.2799 -45.2799 -45.2799 -45.0762 -45.0762 -45.0762 -45.0762
   -44.8618 -44.8618 -44.8618 -44.8618 -44.8360 -44.8360 -44.8360 -44.8360
   -11.0793 -11.0793 -10.9915 -10.9915  -9.7384  -9.7384  -9.7091  -9.7091
    -9.6597  -9.6597  -9.4739  -9.4739  -9.4094  -9.4094  -9.3149  -9.3149
     1.3242   1.3242   1.4039   1.4039   2.0651   2.0651   2.1356   2.1356
     2.7461   2.7461   3.2146   3.2146   3.4428   3.4428   3.6933   3.6933
     3.7404   3.7404   3.9791   3.9791   4.1491   4.1491   4.3562   4.3562
     4.4160   4.4160   4.5033   4.5033   4.7091   4.7091   4.7492   4.7492
     4.8391   4.8391   5.0408   5.0408   5.1148   5.1148   5.4602   5.4602
     5.6224   5.6224   5.6775   5.6775   5.8053   5.8053   5.9233   5.9233
     7.0511   7.0511   7.0554   7.0554   7.1902   7.1902   7.1993   7.1993
     7.4881   7.4881   7.5322   7.5322   7.5995   7.5995   7.7479   7.7479
     8.0137   8.0137   8.0333   8.0333   8.0939   8.0939   8.1420   8.1420
     8.4157   8.4157   8.5167   8.5167   8.7291   8.7291   8.7545   8.7545
     8.8811   8.8811   8.8978   8.8978   9.1915   9.1915   9.4446   9.4446
    13.2854  13.2854  14.4120  14.4120  15.1278  15.1278  16.6324  16.6326

          k =-0.4876 0.0000 0.0000 ( 15374 PWs)   bands (ev):

   -79.3399 -79.3399 -79.3399 -79.3399 -79.1181 -79.1181 -79.1162 -79.1162
   -46.0101 -46.0101 -46.0101 -46.0101 -45.6224 -45.6224 -45.6164 -45.6164
   -45.2799 -45.2799 -45.2799 -45.2799 -45.0774 -45.0774 -45.0750 -45.0750
   -44.8619 -44.8619 -44.8618 -44.8618 -44.8498 -44.8498 -44.8220 -44.8220
   -10.9799 -10.9799 -10.7119 -10.7119 -10.0914 -10.0914  -9.8673  -9.8673
    -9.5962  -9.5962  -9.4233  -9.4233  -9.4102  -9.4102  -9.3819  -9.3819
     1.1117   1.1117   1.2156   1.2156   2.6733   2.6733   2.7665   2.7665
     2.9833   2.9833   3.0166   3.0166   3.2758   3.2758   3.3371   3.3371
     3.5590   3.5590   3.5790   3.5790   3.7441   3.7441   4.2513   4.2513
     4.3589   4.3589   4.4247   4.4247   4.8352   4.8352   4.9064   4.9064
     4.9763   4.9763   5.1070   5.1070   5.2441   5.2441   5.5468   5.5468
     5.6317   5.6317   5.8009   5.8009   6.0033   6.0033   6.6777   6.6777
     6.9933   6.9933   7.0506   7.0506   7.1332   7.1332   7.2252   7.2252
     7.2862   7.2862   7.3242   7.3242   7.4774   7.4774   7.7575   7.7575
     7.8341   7.8341   8.0445   8.0445   8.1359   8.1359   8.1965   8.1965
     8.5133   8.5133   8.7281   8.7281   8.7402   8.7402   8.8432   8.8432
     8.9473   8.9473   9.0095   9.0095   9.1714   9.1714   9.3768   9.3768
    13.9390  13.9390  14.8088  14.8088  15.2081  15.2081  15.4959  15.4959

          k =-0.4876 0.0000-0.3923 ( 15436 PWs)   bands (ev):

   -79.3399 -79.3399 -79.3399 -79.3399 -79.1172 -79.1172 -79.1172 -79.1172
   -46.0102 -46.0102 -46.0102 -46.0102 -45.6194 -45.6194 -45.6193 -45.6193
   -45.2799 -45.2799 -45.2799 -45.2799 -45.0762 -45.0762 -45.0762 -45.0762
   -44.8618 -44.8618 -44.8618 -44.8618 -44.8360 -44.8360 -44.8360 -44.8360
   -10.8438 -10.8438 -10.8123 -10.8123  -9.9880  -9.9880  -9.9812  -9.9812
    -9.5872  -9.5872  -9.5185  -9.5185  -9.3872  -9.3872  -9.3742  -9.3742
     1.2711   1.2711   1.2759   1.2759   2.7253   2.7253   2.8944   2.8944
     3.0631   3.0631   3.1515   3.1515   3.1708   3.1708   3.3840   3.3840
     3.5208   3.5208   3.6312   3.6312   3.7411   3.7411   3.8467   3.8467
     4.2847   4.2847   4.5709   4.5709   4.9988   4.9988   5.0702   5.0702
     5.1583   5.1583   5.2502   5.2502   5.2624   5.2624   5.3046   5.3046
     5.5090   5.5090   5.5986   5.5986   5.8837   5.8837   6.0428   6.0428
     7.0284   7.0284   7.1311   7.1311   7.2670   7.2670   7.2775   7.2775
     7.3147   7.3147   7.4454   7.4454   7.6823   7.6823   7.7013   7.7013
     7.7823   7.7823   7.9205   7.9205   7.9841   7.9841   8.0882   8.0882
     8.4275   8.4275   8.4295   8.4295   8.4442   8.4442   8.8098   8.8098
     8.9740   8.9740   9.0353   9.0353   9.1636   9.1636   9.5766   9.5766
    14.9120  14.9120  14.9826  14.9826  15.7696  15.7981  15.7989  15.8347

 ------ SPIN DOWN ----------


          k = 0.0000 0.0000 0.0000 ( 15339 PWs)   bands (ev):

   -75.1156 -75.1156 -75.1155 -75.1154 -75.0404 -75.0402 -75.0382 -75.0381
   -41.4353 -41.4353 -41.4333 -41.4333 -41.3124 -41.3124 -41.3041 -41.3041
   -41.2552 -41.2550 -41.2545 -41.2544 -41.1849 -41.1844 -41.1810 -41.1810
   -41.1117 -41.1116 -41.0893 -41.0892 -41.0883 -41.0881 -41.0784 -41.0783
   -11.1470 -10.9260 -10.6930 -10.5410  -9.5422  -9.5001  -9.4893  -9.4378
    -9.4059  -9.2799  -9.2409  -9.2169  -9.1938  -9.1479  -9.1211  -9.0606
     1.3136   1.3233   1.7634   1.8474   1.9077   2.0741   2.6671   2.6830
     2.7564   3.2084   3.2815   3.3476   3.5067   4.0217   4.0493   4.0902
     4.4370   4.6017   4.7617   4.8173   4.8181   4.9275   4.9482   4.9488
     4.9921   5.1012   5.1447   5.1466   5.3510   5.3688   5.4723   5.4993
     5.5517   5.5775   5.6748   5.7062   5.7805   5.7991   5.8552   5.9633
     6.2054   6.3525   6.4359   6.4617   6.6434   6.6682   6.7299   6.9110
     9.8614   9.9105  10.2224  10.2260  10.3303  10.3637  10.4153  10.4354
    10.4419  10.5492  10.6240  10.8483  10.9283  10.9517  10.9675  10.9737
    11.0018  11.0660  11.0823  11.1887  11.1889  11.1940  11.3645  11.3737
    11.8559  11.8947  11.9234  11.9864  11.9878  12.1615  12.1990  12.2773
    12.3101  12.3151  12.3509  12.4334  12.4553  12.4709  12.5339  12.7749
    12.7817  13.9290  14.4282  15.6762  16.1351  16.7183  16.7460  16.7820

          k = 0.0000 0.0000-0.3923 ( 15392 PWs)   bands (ev):

   -75.1156 -75.1156 -75.1156 -75.1156 -75.0393 -75.0393 -75.0393 -75.0393
   -41.4344 -41.4344 -41.4344 -41.4344 -41.3082 -41.3082 -41.3081 -41.3081
   -41.2548 -41.2548 -41.2547 -41.2547 -41.1828 -41.1828 -41.1827 -41.1827
   -41.0955 -41.0955 -41.0953 -41.0953 -41.0888 -41.0888 -41.0885 -41.0885
   -10.8653 -10.8653 -10.7797 -10.7797  -9.5037  -9.5037  -9.4842  -9.4842
    -9.4195  -9.4195  -9.2262  -9.2262  -9.1575  -9.1575  -9.0630  -9.0630
     1.5817   1.5817   1.6502   1.6502   2.4386   2.4386   2.4845   2.4845
     3.1123   3.1123   3.5494   3.5494   3.8158   3.8158   4.0554   4.0554
     4.2568   4.2568   4.5404   4.5404   4.7696   4.7696   4.8675   4.8675
     4.9556   4.9556   5.1393   5.1393   5.3461   5.3461   5.3719   5.3719
     5.6264   5.6264   5.7533   5.7533   5.8351   5.8351   6.0413   6.0413
     6.0848   6.0848   6.1630   6.1630   6.5550   6.5550   6.6805   6.6805
    10.3044  10.3044  10.3330  10.3330  10.3979  10.3979  10.4067  10.4067
    10.6145  10.6145  10.7210  10.7210  10.8518  10.8518  10.8819  10.8819
    10.9777  10.9777  11.0117  11.0117  11.1997  11.1997  11.2946  11.2946
    11.7843  11.7843  11.9083  11.9083  12.1681  12.1681  12.1730  12.1730
    12.3313  12.3313  12.3716  12.3716  12.5543  12.5543  12.6252  12.6252
    13.9028  13.9028  14.9268  14.9268  15.6363  15.6363  16.9877  16.9877

          k =-0.4876 0.0000 0.0000 ( 15374 PWs)   bands (ev):

   -75.1156 -75.1156 -75.1155 -75.1155 -75.0404 -75.0404 -75.0382 -75.0382
   -41.4343 -41.4343 -41.4343 -41.4343 -41.3125 -41.3125 -41.3041 -41.3041
   -41.2549 -41.2549 -41.2546 -41.2546 -41.1847 -41.1847 -41.1810 -41.1810
   -41.1117 -41.1117 -41.0888 -41.0888 -41.0887 -41.0887 -41.0784 -41.0784
   -10.7680 -10.7680 -10.4926 -10.4926  -9.8675  -9.8675  -9.6451  -9.6451
    -9.3472  -9.3472  -9.1701  -9.1701  -9.1610  -9.1610  -9.1367  -9.1367
     1.4058   1.4058   1.4522   1.4522   3.0061   3.0061   3.0832   3.0832
     3.3968   3.3968   3.4154   3.4154   3.7005   3.7005   3.7729   3.7729
     3.9811   3.9811   4.0827   4.0827   4.1318   4.1318   4.6123   4.6123
     4.9745   4.9745   5.0932   5.0932   5.5477   5.5477   5.6709   5.6709
     5.8117   5.8117   5.8499   5.8499   6.0478   6.0478   6.1150   6.1150
     6.2958   6.2958   6.4447   6.4447   6.5585   6.5585   7.0756   7.0756
     9.8970   9.8970  10.1440  10.1440  10.3500  10.3500  10.4544  10.4544
    10.5777  10.5777  10.6975  10.6975  10.9947  10.9947  11.0072  11.0072
    11.0795  11.0795  11.1426  11.1426  11.1684  11.1684  11.4226  11.4226
    11.8897  11.8897  12.0056  12.0056  12.0555  12.0555  12.1695  12.1695
    12.2141  12.2141  12.4098  12.4098  12.4633  12.4633  12.6456  12.6456
    14.3864  14.3864  15.1511  15.1511  15.7878  15.7878  16.0866  16.0866

          k =-0.4876 0.0000-0.3923 ( 15436 PWs)   bands (ev):

   -75.1157 -75.1157 -75.1156 -75.1156 -75.0394 -75.0394 -75.0394 -75.0394
   -41.4344 -41.4344 -41.4344 -41.4344 -41.3082 -41.3082 -41.3081 -41.3081
   -41.2549 -41.2549 -41.2546 -41.2546 -41.1829 -41.1829 -41.1827 -41.1827
   -41.0955 -41.0955 -41.0953 -41.0953 -41.0888 -41.0888 -41.0885 -41.0885
   -10.6290 -10.6290 -10.5975 -10.5975  -9.7655  -9.7655  -9.7561  -9.7561
    -9.3385  -9.3385  -9.2700  -9.2700  -9.1356  -9.1356  -9.1268  -9.1268
     1.5383   1.5383   1.5685   1.5685   3.1198   3.1198   3.3029   3.3029
     3.4454   3.4454   3.5532   3.5532   3.5754   3.5754   3.7317   3.7317
     3.9840   3.9840   4.0323   4.0323   4.3069   4.3069   4.3381   4.3381
     4.7097   4.7097   5.0575   5.0575   5.5320   5.5320   5.5585   5.5585
     5.7837   5.7837   5.8817   5.8817   6.1526   6.1526   6.1884   6.1884
     6.2728   6.2728   6.3276   6.3276   6.4555   6.4555   6.6658   6.6658
    10.2266  10.2266  10.2456  10.2456  10.4153  10.4153  10.4406  10.4406
    10.6941  10.6941  10.7179  10.7179  10.8979  10.8979  10.8983  10.8983
    11.0353  11.0353  11.1050  11.1050  11.1532  11.1532  11.2190  11.2190
    11.7231  11.7231  11.7574  11.7574  11.9734  11.9734  12.0388  12.0388
    12.1871  12.1871  12.3255  12.3255  12.4990  12.4990  12.8080  12.8080
    15.3545  15.3545  15.5062  15.5062  16.2739  16.2739  16.2900  16.2900

     the Fermi energy is    10.5167 ev

!    total energy              =   -3488.70098586 Ry

     total all-electron energy =    -25094.006954 Ry
     estimated scf accuracy    <          5.5E-10 Ry
     smearing contrib. (-TS)   =      -0.01067962 Ry
     internal energy E=F+TS    =   -3488.69030625 Ry

     The total energy is F=E-TS. E is the sum of the following terms:
     one-electron contribution =   -1483.39463539 Ry
     hartree contribution      =     868.69933048 Ry
     xc contribution           =    -368.40379512 Ry
     ewald contribution        =   -1547.83599969 Ry
     one-center paw contrib.   =    -957.75520652 Ry

     total magnetization       =    32.00 Bohr mag/cell
     absolute magnetization    =    32.10 Bohr mag/cell

     convergence has been achieved in  14 iterations

     negative rho (up, down):  0.000E+00 3.182E-03

     Forces acting on atoms (cartesian axes, Ry/au):

     atom    1 type  1   force =     0.00000000    0.00000000    0.00000000
     atom    2 type  1   force =    -0.00000000    0.00000000   -0.00000000
     atom    3 type  1   force =     0.00000000    0.00000000    0.00000000
     atom    4 type  1   force =     0.00000000    0.00000000    0.00000000
     atom    5 type  1   force =    -0.00003750   -0.00001107    0.00000000
     atom    6 type  1   force =     0.00003750    0.00001107    0.00000000
     atom    7 type  1   force =    -0.00003750    0.00001107   -0.00000000
     atom    8 type  1   force =     0.00003750   -0.00001107    0.00000000
     atom    9 type  2   force =     0.00008261   -0.00001482   -0.00000000
     atom   10 type  2   force =    -0.00008261    0.00001482   -0.00000000
     atom   11 type  2   force =     0.00008261    0.00001482    0.00000000
     atom   12 type  2   force =    -0.00008261   -0.00001482    0.00000000
     atom   13 type  3   force =     0.00007012   -0.00005807   -0.00000000
     atom   14 type  3   force =    -0.00007012    0.00005807    0.00000000
     atom   15 type  3   force =     0.00007012    0.00005807    0.00000000
     atom   16 type  3   force =    -0.00007012   -0.00005807    0.00000000
     atom   17 type  3   force =     0.00005763   -0.00001400    0.00000000
     atom   18 type  3   force =    -0.00005763    0.00001400    0.00000000
     atom   19 type  3   force =     0.00005763    0.00001400    0.00000000
     atom   20 type  3   force =    -0.00005763   -0.00001400    0.00000000
     atom   21 type  3   force =    -0.00002110   -0.00001648    0.00006333
     atom   22 type  3   force =     0.00002110    0.00001648   -0.00006333
     atom   23 type  3   force =    -0.00002110    0.00001648   -0.00006333
     atom   24 type  3   force =     0.00002110   -0.00001648    0.00006333
     atom   25 type  3   force =     0.00002110    0.00001648    0.00006333
     atom   26 type  3   force =    -0.00002110   -0.00001648   -0.00006333
     atom   27 type  3   force =     0.00002110   -0.00001648   -0.00006333
     atom   28 type  3   force =    -0.00002110    0.00001648    0.00006333

     Total force =     0.000345     Total SCF correction =     0.000053
     SCF correction compared to forces is large: reduce conv_thr to get better values


     Computing stress (Cartesian axis) and pressure


     negative rho (up, down):  0.000E+00 3.182E-03
          total   stress  (Ry/bohr**3)                   (kbar)     P=        0.01
  -0.00000008   0.00000000   0.00000000           -0.01        0.00        0.00
   0.00000000   0.00000032   0.00000000            0.00        0.05        0.00
   0.00000000   0.00000000  -0.00000013            0.00        0.00       -0.02

     Energy error            =      2.7E-07
     Gradient error          =      8.3E-05
     Cell gradient error     =      3.2E-07


     bfgs converged in  27 scf cycles and  26 bfgs steps
     (criteria: energy <  1.0E-05 Ry, force <  1.0E-04Ry/Bohr, cell <  5.0E-01kbar)

     End of BFGS Geometry Optimization

     Final enthalpy =   -3488.7009858617 Ry

     File ./out/oliv.bfgs deleted, as requested
Begin final coordinates
     new unit-cell volume =   2091.88984 a.u.^3 (   309.98609 Ang^3 )
     density =      4.36626 g/cm^3

CELL_PARAMETERS (angstrom)
   4.875145891   0.000000000   0.000000000
   0.000000000  10.494561337   0.000000000
   0.000000000   0.000000000   6.058851433

ATOMIC_POSITIONS (angstrom)
Fe            0.0000000000       -0.0000000000       -0.0000000000
Fe            2.4375729453        5.2472806685        0.0000000000
Fe           -0.0000000000        0.0000000000        3.0294257163
Fe            2.4375729453        5.2472806685        3.0294257163
Fe            0.0922313802        2.9279559905        4.5441385745
Fe            4.7829145104        7.5666053465        1.5147128582
Fe            2.5298043254        2.3193246780        1.5147128582
Fe            2.3453415651        8.1752366590        4.5441385745
Si            0.3436380285        4.2317656505        1.5147128582
Si            4.5315078620        6.2627956865        4.5441385745
Si            2.7812109738        1.0155150180        4.5441385745
Si            2.0939349167        9.4790463191        1.5147128582
O             1.1431173911        0.9912839575        4.5441385745
O             3.7320284994        9.5032773795        1.5147128582
O             3.5806903364        4.2559967110        1.5147128582
O             1.2944555541        6.2385646260        4.5441385745
O             1.4473440398        0.5208151752        1.5147128582
O             3.4278018507        9.9737461618        4.5441385745
O             3.8849169851        4.7264654933        4.5441385745
O             0.9902289054        5.7680958437        1.5147128582
O             1.0451494110        3.5023947047        2.8221950421
O             3.8299964795        6.9921666323        3.2366563906
O             3.4827223563        1.7448859638        3.2366563906
O             1.3924235342        8.7496753733        2.8221950421
O             3.8299964795        6.9921666323        5.8516207584
O             1.0451494110        3.5023947047        0.2072306742
O             1.3924235342        8.7496753733        0.2072306742
O             3.4827223563        1.7448859638        5.8516207584
End final coordinates



     Writing output data file ./out/oliv.save/

     Final scf calculation at the relaxed structure.
     The G-vectors are recalculated for the final unit cell
     Results may differ from those at the preceding step.

     Parallelization info
     --------------------
     sticks:   dense  smooth     PW     G-vecs:    dense   smooth      PW
     Min         498     248     69                26537     9384    1377
     Max         500     249     70                26539     9387    1379
     Sum        6983    3481    969               371529   131397   19285



     bravais-lattice index     =            0
     lattice parameter (alat)  =       8.9841  a.u.
     unit-cell volume          =    2091.8898 (a.u.)^3
     number of atoms/cell      =           28
     number of atomic types    =            3
     number of electrons       =       240.00
     number of Kohn-Sham states=          144
     kinetic-energy cutoff     =      60.0000  Ry
     charge density cutoff     =     480.0000  Ry
     scf convergence threshold =      1.0E-09
     mixing beta               =       0.3000
     number of iterations used =            8  plain     mixing
     press convergence thresh. =      5.0E-01
     Exchange-correlation= SLA  PW   PBX  PBC
                           (   1   4   3   4   0   0   0)

     celldm(1)=   8.984136  celldm(2)=   0.000000  celldm(3)=   0.000000
     celldm(4)=   0.000000  celldm(5)=   0.000000  celldm(6)=   0.000000

     crystal axes: (cart. coord. in units of alat)
               a(1) = (   1.025440   0.000000   0.000000 )  
               a(2) = (   0.000000   2.207430   0.000000 )  
               a(3) = (   0.000000   0.000000   1.274421 )  

     reciprocal axes: (cart. coord. in units 2 pi/alat)
               b(1) = (  0.975191  0.000000  0.000000 )  
               b(2) = (  0.000000  0.453016  0.000000 )  
               b(3) = (  0.000000  0.000000  0.784670 )  


     PseudoPot. # 1 for Fe read from file:
     /mnt/c/Users/busta/Code/mqmqa/data/olivine/_dft/pseudo/Fe.pbe-spn-kjpaw_psl.1.0.0.UPF
     MD5 check sum: b6da53cdaab7fe9413c4d0a2c79db549
     Pseudo is Projector augmented-wave + core cor, Zval = 16.0
     Generated using &quot;atomic&quot; code by A. Dal Corso  v.6.3
     Shape of augmentation charge: PSQ
     Using radial grid of 1191 points,  6 beta functions with: 
                l(1) =   0
                l(2) =   0
                l(3) =   1
                l(4) =   1
                l(5) =   2
                l(6) =   2
     Q(r) pseudized with 0 coefficients 


     PseudoPot. # 2 for Si read from file:
     /mnt/c/Users/busta/Code/mqmqa/data/olivine/_dft/pseudo/Si.pbe-n-kjpaw_psl.1.0.0.UPF
     MD5 check sum: c39c59da582df4a0d9f10159256ea34e
     Pseudo is Projector augmented-wave + core cor, Zval =  4.0
     Generated using &quot;atomic&quot; code by A. Dal Corso  v.6.3
     Shape of augmentation charge: PSQ
     Using radial grid of 1141 points,  6 beta functions with: 
                l(1) =   0
                l(2) =   0
                l(3) =   1
                l(4) =   1
                l(5) =   2
                l(6) =   2
     Q(r) pseudized with 0 coefficients 


     PseudoPot. # 3 for O  read from file:
     /mnt/c/Users/busta/Code/mqmqa/data/olivine/_dft/pseudo/O.pbe-n-kjpaw_psl.1.0.0.UPF
     MD5 check sum: e99d9cef9b487d1ca56f5b95ecd0fd7a
     Pseudo is Projector augmented-wave + core cor, Zval =  6.0
     Generated using &quot;atomic&quot; code by A. Dal Corso  v.6.3
     Shape of augmentation charge: PSQ
     Using radial grid of 1095 points,  4 beta functions with: 
                l(1) =   0
                l(2) =   0
                l(3) =   1
                l(4) =   1
     Q(r) pseudized with 0 coefficients 


     atomic species   valence    mass     pseudopotential
        Fe            16.00    55.84500     Fe( 1.00)
        Si             4.00    28.08500     Si( 1.00)
        O              6.00    15.99900     O ( 1.00)

     Starting magnetic structure 
     atomic species   magnetization
        Fe           0.252
        Si           0.011
        O            0.029

      8 Sym. Ops., with inversion, found ( 6 have fractional translation)



   Cartesian axes

     site n.     atom                  positions (alat units)
         1           Fe  tau(   1) = (   0.0000000  -0.0000000  -0.0000000  )
         2           Fe  tau(   2) = (   0.5127199   1.1037148   0.0000000  )
         3           Fe  tau(   3) = (  -0.0000000   0.0000000   0.6372104  )
         4           Fe  tau(   4) = (   0.5127199   1.1037148   0.6372104  )
         5           Fe  tau(   5) = (   0.0194000   0.6158672   0.9558156  )
         6           Fe  tau(   6) = (   1.0060398   1.5915623   0.3186052  )
         7           Fe  tau(   7) = (   0.5321199   0.4878475   0.3186052  )
         8           Fe  tau(   8) = (   0.4933199   1.7195820   0.9558156  )
         9           Si  tau(   9) = (   0.0722809   0.8901110   0.3186052  )
        10           Si  tau(  10) = (   0.9531589   1.3173185   0.9558156  )
        11           Si  tau(  11) = (   0.5850008   0.2136038   0.9558156  )
        12           Si  tau(  12) = (   0.4404390   1.9938257   0.3186052  )
        13           O   tau(  13) = (   0.2404437   0.2085070   0.9558156  )
        14           O   tau(  14) = (   0.7849961   1.9989225   0.3186052  )
        15           O   tau(  15) = (   0.7531636   0.8952078   0.3186052  )
        16           O   tau(  16) = (   0.2722762   1.3122217   0.9558156  )
        17           O   tau(  17) = (   0.3044348   0.1095484   0.3186052  )
        18           O   tau(  18) = (   0.7210050   2.0978811   0.9558156  )
        19           O   tau(  19) = (   0.8171547   0.9941663   0.9558156  )
        20           O   tau(  20) = (   0.2082851   1.2132632   0.3186052  )
        21           O   tau(  21) = (   0.2198371   0.7366949   0.5936214  )
        22           O   tau(  22) = (   0.8056027   1.4707346   0.6807994  )
        23           O   tau(  23) = (   0.7325570   0.3670199   0.6807994  )
        24           O   tau(  24) = (   0.2928828   1.8404096   0.5936214  )
        25           O   tau(  25) = (   0.8056027   1.4707346   1.2308318  )
        26           O   tau(  26) = (   0.2198371   0.7366949   0.0435890  )
        27           O   tau(  27) = (   0.2928828   1.8404096   0.0435890  )
        28           O   tau(  28) = (   0.7325570   0.3670199   1.2308318  )

     number of k points=     4  Gaussian smearing, width (Ry)=  0.0100
                       cart. coord. in units 2pi/alat
        k(    1) = (   0.0000000   0.0000000   0.0000000), wk =   0.2500000
        k(    2) = (   0.0000000   0.0000000  -0.3923351), wk =   0.2500000
        k(    3) = (  -0.4875957   0.0000000   0.0000000), wk =   0.2500000
        k(    4) = (  -0.4875957   0.0000000  -0.3923351), wk =   0.2500000

     Dense  grid:   371529 G-vectors     FFT dimensions: (  72, 144,  80)

     Smooth grid:   131397 G-vectors     FFT dimensions: (  48, 100,  60)

     Estimated max dynamical RAM per process >     162.19 MB

     Estimated total dynamical RAM >       2.22 GB

     Check: negative core charge=   -0.000001
     Generating pointlists ...

     Initial potential from superposition of free atoms

     starting charge  239.99424, renormalised to  240.00000
     Starting wfcs are  160 randomized atomic wfcs
     Checking if some PAW data can be deallocated... 

     total cpu time spent up to now is    35452.5 secs

     Self-consistent Calculation

     iteration #  1     ecut=    60.00 Ry     beta= 0.30
     Davidson diagonalization with overlap
     c_bands:  5 eigenvalues not converged
     c_bands:  4 eigenvalues not converged
     c_bands:  2 eigenvalues not converged
     c_bands:  2 eigenvalues not converged
     c_bands:  5 eigenvalues not converged
     c_bands:  2 eigenvalues not converged
     ethr =  1.00E-06,  avg # of iterations = 27.1

     total cpu time spent up to now is    35746.5 secs

     total energy              =   -3487.60424870 Ry
     estimated scf accuracy    <       6.01526508 Ry

     total magnetization       =    32.08 Bohr mag/cell
     absolute magnetization    =    32.10 Bohr mag/cell

     iteration #  2     ecut=    60.00 Ry     beta= 0.30
     Davidson diagonalization with overlap
     ethr =  2.51E-03,  avg # of iterations =  1.6

     total cpu time spent up to now is    35786.9 secs

     total energy              =   -3486.12430559 Ry
     estimated scf accuracy    <      30.58189525 Ry

     total magnetization       =    21.60 Bohr mag/cell
     absolute magnetization    =    22.15 Bohr mag/cell

     iteration #  3     ecut=    60.00 Ry     beta= 0.30
     Davidson diagonalization with overlap
     ethr =  2.51E-03,  avg # of iterations =  2.0

     total cpu time spent up to now is    35829.3 secs

     total energy              =   -3488.23721499 Ry
     estimated scf accuracy    <       5.62093300 Ry

     total magnetization       =    31.61 Bohr mag/cell
     absolute magnetization    =    31.66 Bohr mag/cell

     iteration #  4     ecut=    60.00 Ry     beta= 0.30
     Davidson diagonalization with overlap
     ethr =  2.34E-03,  avg # of iterations =  2.0

     negative rho (up, down):  0.000E+00 4.731E-04

     total cpu time spent up to now is    35872.0 secs

     total energy              =   -3488.44236599 Ry
     estimated scf accuracy    <       1.40419921 Ry

     total magnetization       =    32.00 Bohr mag/cell
     absolute magnetization    =    32.03 Bohr mag/cell

     iteration #  5     ecut=    60.00 Ry     beta= 0.30
     Davidson diagonalization with overlap
     ethr =  5.85E-04,  avg # of iterations =  2.2

     negative rho (up, down):  0.000E+00 6.391E-04

     total cpu time spent up to now is    35918.5 secs

     total energy              =   -3488.60942838 Ry
     estimated scf accuracy    <       1.05708334 Ry

     total magnetization       =    32.00 Bohr mag/cell
     absolute magnetization    =    32.02 Bohr mag/cell

     iteration #  6     ecut=    60.00 Ry     beta= 0.30
     Davidson diagonalization with overlap
     ethr =  4.40E-04,  avg # of iterations =  2.0

     negative rho (up, down):  0.000E+00 1.097E-03

     total cpu time spent up to now is    35961.4 secs

     total energy              =   -3488.64028677 Ry
     estimated scf accuracy    <       0.11468395 Ry

     total magnetization       =    32.00 Bohr mag/cell
     absolute magnetization    =    32.03 Bohr mag/cell

     iteration #  7     ecut=    60.00 Ry     beta= 0.30
     Davidson diagonalization with overlap
     ethr =  4.78E-05,  avg # of iterations =  8.2

     negative rho (up, down):  0.000E+00 3.080E-03

     total cpu time spent up to now is    36035.0 secs

     total energy              =   -3488.68544683 Ry
     estimated scf accuracy    <       0.04616575 Ry

     total magnetization       =    32.00 Bohr mag/cell
     absolute magnetization    =    32.04 Bohr mag/cell

     iteration #  8     ecut=    60.00 Ry     beta= 0.30
     Davidson diagonalization with overlap
     ethr =  1.92E-05,  avg # of iterations =  7.8

     negative rho (up, down):  0.000E+00 2.863E-03

     total cpu time spent up to now is    36106.7 secs

     total energy              =   -3488.68369468 Ry
     estimated scf accuracy    <       0.90039542 Ry

     total magnetization       =    32.00 Bohr mag/cell
     absolute magnetization    =    32.07 Bohr mag/cell

     iteration #  9     ecut=    60.00 Ry     beta= 0.30
     Davidson diagonalization with overlap
     ethr =  1.92E-05,  avg # of iterations =  5.6

     negative rho (up, down):  0.000E+00 2.862E-03

     total cpu time spent up to now is    36152.9 secs

     total energy              =   -3488.70087432 Ry
     estimated scf accuracy    <       0.21007959 Ry

     total magnetization       =    32.00 Bohr mag/cell
     absolute magnetization    =    32.08 Bohr mag/cell

     iteration # 10     ecut=    60.00 Ry     beta= 0.30
     Davidson diagonalization with overlap
     ethr =  1.92E-05,  avg # of iterations =  1.6

     negative rho (up, down):  0.000E+00 2.816E-03

     total cpu time spent up to now is    36189.6 secs

     total energy              =   -3488.69731531 Ry
     estimated scf accuracy    <       0.22398140 Ry

     total magnetization       =    32.00 Bohr mag/cell
     absolute magnetization    =    32.08 Bohr mag/cell

     iteration # 11     ecut=    60.00 Ry     beta= 0.30
     Davidson diagonalization with overlap
     ethr =  1.92E-05,  avg # of iterations =  3.8

     negative rho (up, down):  0.000E+00 3.126E-03

     total cpu time spent up to now is    36236.9 secs

     total energy              =   -3488.70474143 Ry
     estimated scf accuracy    <       0.14010804 Ry

     total magnetization       =    32.00 Bohr mag/cell
     absolute magnetization    =    32.08 Bohr mag/cell

     iteration # 12     ecut=    60.00 Ry     beta= 0.30
     Davidson diagonalization with overlap
     ethr =  1.92E-05,  avg # of iterations =  2.8

     negative rho (up, down):  0.000E+00 3.169E-03

     total cpu time spent up to now is    36285.3 secs

     total energy              =   -3488.71275136 Ry
     estimated scf accuracy    <       0.04161311 Ry

     total magnetization       =    32.00 Bohr mag/cell
     absolute magnetization    =    32.10 Bohr mag/cell

     iteration # 13     ecut=    60.00 Ry     beta= 0.30
     Davidson diagonalization with overlap
     ethr =  1.73E-05,  avg # of iterations =  2.0

     negative rho (up, down):  0.000E+00 3.211E-03

     total cpu time spent up to now is    36327.3 secs

     total energy              =   -3488.70442216 Ry
     estimated scf accuracy    <       0.02487316 Ry

     total magnetization       =    32.00 Bohr mag/cell
     absolute magnetization    =    32.10 Bohr mag/cell

     iteration # 14     ecut=    60.00 Ry     beta= 0.30
     Davidson diagonalization with overlap
     ethr =  1.04E-05,  avg # of iterations =  2.0

     negative rho (up, down):  0.000E+00 3.129E-03

     total cpu time spent up to now is    36372.7 secs

     total energy              =   -3488.70648463 Ry
     estimated scf accuracy    <       0.00333214 Ry

     total magnetization       =    32.00 Bohr mag/cell
     absolute magnetization    =    32.10 Bohr mag/cell

     iteration # 15     ecut=    60.00 Ry     beta= 0.30
     Davidson diagonalization with overlap
     c_bands:  1 eigenvalues not converged
     c_bands:  2 eigenvalues not converged
     ethr =  1.39E-06,  avg # of iterations = 16.5

     negative rho (up, down):  0.000E+00 3.069E-03

     total cpu time spent up to now is    36441.8 secs

     total energy              =   -3488.70866809 Ry
     estimated scf accuracy    <       0.00062861 Ry

     total magnetization       =    32.00 Bohr mag/cell
     absolute magnetization    =    32.10 Bohr mag/cell

     iteration # 16     ecut=    60.00 Ry     beta= 0.30
     Davidson diagonalization with overlap
     ethr =  2.62E-07,  avg # of iterations =  7.0

     negative rho (up, down):  0.000E+00 3.061E-03

     total cpu time spent up to now is    36575.8 secs

     total energy              =   -3488.70625946 Ry
     estimated scf accuracy    <       0.00882474 Ry

     total magnetization       =    32.00 Bohr mag/cell
     absolute magnetization    =    32.10 Bohr mag/cell

     iteration # 17     ecut=    60.00 Ry     beta= 0.30
     Davidson diagonalization with overlap
     ethr =  2.62E-07,  avg # of iterations =  7.4

     negative rho (up, down):  0.000E+00 3.071E-03

     total cpu time spent up to now is    36701.1 secs

     total energy              =   -3488.70846090 Ry
     estimated scf accuracy    <       0.00050019 Ry

     total magnetization       =    32.00 Bohr mag/cell
     absolute magnetization    =    32.10 Bohr mag/cell

     iteration # 18     ecut=    60.00 Ry     beta= 0.30
     Davidson diagonalization with overlap
     ethr =  2.08E-07,  avg # of iterations =  5.6

     negative rho (up, down):  0.000E+00 3.093E-03

     total cpu time spent up to now is    36760.2 secs

     total energy              =   -3488.70862825 Ry
     estimated scf accuracy    <       0.00010746 Ry

     total magnetization       =    32.00 Bohr mag/cell
     absolute magnetization    =    32.10 Bohr mag/cell

     iteration # 19     ecut=    60.00 Ry     beta= 0.30
     Davidson diagonalization with overlap
     ethr =  4.48E-08,  avg # of iterations =  4.5

     negative rho (up, down):  0.000E+00 3.099E-03

     total cpu time spent up to now is    36822.3 secs

     total energy              =   -3488.70867501 Ry
     estimated scf accuracy    <       0.00005029 Ry

     total magnetization       =    32.00 Bohr mag/cell
     absolute magnetization    =    32.10 Bohr mag/cell

     iteration # 20     ecut=    60.00 Ry     beta= 0.30
     Davidson diagonalization with overlap
     ethr =  2.10E-08,  avg # of iterations =  3.1

     negative rho (up, down):  0.000E+00 3.098E-03

     total cpu time spent up to now is    36873.2 secs

     total energy              =   -3488.70869455 Ry
     estimated scf accuracy    <       0.00001632 Ry

     total magnetization       =    32.00 Bohr mag/cell
     absolute magnetization    =    32.10 Bohr mag/cell

     iteration # 21     ecut=    60.00 Ry     beta= 0.30
     Davidson diagonalization with overlap
     ethr =  6.80E-09,  avg # of iterations =  3.8

     negative rho (up, down):  0.000E+00 3.094E-03

     total cpu time spent up to now is    36926.8 secs

     total energy              =   -3488.70870120 Ry
     estimated scf accuracy    <       0.00000900 Ry

     total magnetization       =    32.00 Bohr mag/cell
     absolute magnetization    =    32.10 Bohr mag/cell

     iteration # 22     ecut=    60.00 Ry     beta= 0.30
     Davidson diagonalization with overlap
     ethr =  3.75E-09,  avg # of iterations =  4.5

     negative rho (up, down):  0.000E+00 3.092E-03

     total cpu time spent up to now is    36981.0 secs

     total energy              =   -3488.70870700 Ry
     estimated scf accuracy    <       0.00000349 Ry

     total magnetization       =    32.00 Bohr mag/cell
     absolute magnetization    =    32.10 Bohr mag/cell

     iteration # 23     ecut=    60.00 Ry     beta= 0.30
     Davidson diagonalization with overlap
     ethr =  1.45E-09,  avg # of iterations =  4.6

     negative rho (up, down):  0.000E+00 3.093E-03

     total cpu time spent up to now is    37028.7 secs

     total energy              =   -3488.70870978 Ry
     estimated scf accuracy    <       0.00000366 Ry

     total magnetization       =    32.00 Bohr mag/cell
     absolute magnetization    =    32.10 Bohr mag/cell

     iteration # 24     ecut=    60.00 Ry     beta= 0.30
     Davidson diagonalization with overlap
     ethr =  1.45E-09,  avg # of iterations =  2.1

     negative rho (up, down):  0.000E+00 3.092E-03

     total cpu time spent up to now is    37069.4 secs

     total energy              =   -3488.70870949 Ry
     estimated scf accuracy    <       0.00000324 Ry

     total magnetization       =    32.00 Bohr mag/cell
     absolute magnetization    =    32.10 Bohr mag/cell

     iteration # 25     ecut=    60.00 Ry     beta= 0.30
     Davidson diagonalization with overlap
     ethr =  1.35E-09,  avg # of iterations =  4.2

     negative rho (up, down):  0.000E+00 3.092E-03

     total cpu time spent up to now is    37124.2 secs

     total energy              =   -3488.70871251 Ry
     estimated scf accuracy    <       0.00000052 Ry

     total magnetization       =    32.00 Bohr mag/cell
     absolute magnetization    =    32.10 Bohr mag/cell

     iteration # 26     ecut=    60.00 Ry     beta= 0.30
     Davidson diagonalization with overlap
     ethr =  2.17E-10,  avg # of iterations =  3.5

     negative rho (up, down):  0.000E+00 3.092E-03

     total cpu time spent up to now is    37174.8 secs

     total energy              =   -3488.70871272 Ry
     estimated scf accuracy    <       0.00000013 Ry

     total magnetization       =    32.00 Bohr mag/cell
     absolute magnetization    =    32.10 Bohr mag/cell

     iteration # 27     ecut=    60.00 Ry     beta= 0.30
     Davidson diagonalization with overlap
     ethr =  5.52E-11,  avg # of iterations =  4.9

     negative rho (up, down):  0.000E+00 3.092E-03

     total cpu time spent up to now is    37251.4 secs

     total energy              =   -3488.70871286 Ry
     estimated scf accuracy    <       0.00000016 Ry

     total magnetization       =    32.00 Bohr mag/cell
     absolute magnetization    =    32.10 Bohr mag/cell

     iteration # 28     ecut=    60.00 Ry     beta= 0.30
     Davidson diagonalization with overlap
     ethr =  5.52E-11,  avg # of iterations =  2.0

     negative rho (up, down):  0.000E+00 3.092E-03

     total cpu time spent up to now is    37298.2 secs

     total energy              =   -3488.70871290 Ry
     estimated scf accuracy    <       0.00000003 Ry

     total magnetization       =    32.00 Bohr mag/cell
     absolute magnetization    =    32.10 Bohr mag/cell

     iteration # 29     ecut=    60.00 Ry     beta= 0.30
     Davidson diagonalization with overlap
     ethr =  1.32E-11,  avg # of iterations =  4.1

     negative rho (up, down):  0.000E+00 3.092E-03

     total cpu time spent up to now is    37370.1 secs

     total energy              =   -3488.70871294 Ry
     estimated scf accuracy    <          9.9E-09 Ry

     total magnetization       =    32.00 Bohr mag/cell
     absolute magnetization    =    32.10 Bohr mag/cell

     iteration # 30     ecut=    60.00 Ry     beta= 0.30
     Davidson diagonalization with overlap
     ethr =  4.14E-12,  avg # of iterations =  4.4

     negative rho (up, down):  0.000E+00 3.092E-03

     total cpu time spent up to now is    37440.1 secs

     total energy              =   -3488.70871296 Ry
     estimated scf accuracy    <       0.00000001 Ry

     total magnetization       =    32.00 Bohr mag/cell
     absolute magnetization    =    32.10 Bohr mag/cell

     iteration # 31     ecut=    60.00 Ry     beta= 0.30
     Davidson diagonalization with overlap
     ethr =  4.14E-12,  avg # of iterations =  4.4

     negative rho (up, down):  0.000E+00 3.092E-03

     total cpu time spent up to now is    37483.4 secs

     total energy              =   -3488.70871296 Ry
     estimated scf accuracy    <          5.7E-09 Ry

     total magnetization       =    32.00 Bohr mag/cell
     absolute magnetization    =    32.10 Bohr mag/cell

     iteration # 32     ecut=    60.00 Ry     beta= 0.30
     Davidson diagonalization with overlap
     ethr =  2.39E-12,  avg # of iterations =  2.6

     negative rho (up, down):  0.000E+00 3.092E-03

     total cpu time spent up to now is    37525.3 secs

     total energy              =   -3488.70871297 Ry
     estimated scf accuracy    <          3.0E-09 Ry

     total magnetization       =    32.00 Bohr mag/cell
     absolute magnetization    =    32.10 Bohr mag/cell

     iteration # 33     ecut=    60.00 Ry     beta= 0.30
     Davidson diagonalization with overlap
     ethr =  1.23E-12,  avg # of iterations =  3.0

     negative rho (up, down):  0.000E+00 3.092E-03

     total cpu time spent up to now is    37566.9 secs

     total energy              =   -3488.70871297 Ry
     estimated scf accuracy    <          1.7E-09 Ry

     total magnetization       =    32.00 Bohr mag/cell
     absolute magnetization    =    32.10 Bohr mag/cell

     iteration # 34     ecut=    60.00 Ry     beta= 0.30
     Davidson diagonalization with overlap
     ethr =  6.97E-13,  avg # of iterations =  4.8

     negative rho (up, down):  0.000E+00 3.092E-03

     total cpu time spent up to now is    37632.7 secs

     total energy              =   -3488.70871297 Ry
     estimated scf accuracy    <          2.2E-09 Ry

     total magnetization       =    32.00 Bohr mag/cell
     absolute magnetization    =    32.10 Bohr mag/cell

     iteration # 35     ecut=    60.00 Ry     beta= 0.30
     Davidson diagonalization with overlap
     ethr =  6.97E-13,  avg # of iterations =  5.6

     negative rho (up, down):  0.000E+00 3.092E-03

     total cpu time spent up to now is    37715.5 secs

     total energy              =   -3488.70871297 Ry
     estimated scf accuracy    <          2.1E-09 Ry

     total magnetization       =    32.00 Bohr mag/cell
     absolute magnetization    =    32.10 Bohr mag/cell

     iteration # 36     ecut=    60.00 Ry     beta= 0.30
     Davidson diagonalization with overlap
     ethr =  6.97E-13,  avg # of iterations =  5.2

     negative rho (up, down):  0.000E+00 3.092E-03

     Magnetic moment per site:
     atom:    1    charge:   13.3639    magn:    3.3186    constr:    0.0000
     atom:    2    charge:   13.3639    magn:    3.3186    constr:    0.0000
     atom:    3    charge:   13.3639    magn:    3.3186    constr:    0.0000
     atom:    4    charge:   13.3639    magn:    3.3186    constr:    0.0000
     atom:    5    charge:   13.3280    magn:    3.4147    constr:    0.0000
     atom:    6    charge:   13.3280    magn:    3.4147    constr:    0.0000
     atom:    7    charge:   13.3280    magn:    3.4147    constr:    0.0000
     atom:    8    charge:   13.3280    magn:    3.4147    constr:    0.0000
     atom:    9    charge:    0.3885    magn:    0.0043    constr:    0.0000
     atom:   10    charge:    0.3885    magn:    0.0043    constr:    0.0000
     atom:   11    charge:    0.3885    magn:    0.0043    constr:    0.0000
     atom:   12    charge:    0.3885    magn:    0.0043    constr:    0.0000
     atom:   13    charge:    4.0289    magn:    0.1039    constr:    0.0000
     atom:   14    charge:    4.0289    magn:    0.1039    constr:    0.0000
     atom:   15    charge:    4.0289    magn:    0.1039    constr:    0.0000
     atom:   16    charge:    4.0289    magn:    0.1039    constr:    0.0000
     atom:   17    charge:    4.0221    magn:    0.1179    constr:    0.0000
     atom:   18    charge:    4.0221    magn:    0.1179    constr:    0.0000
     atom:   19    charge:    4.0221    magn:    0.1179    constr:    0.0000
     atom:   20    charge:    4.0221    magn:    0.1179    constr:    0.0000
     atom:   21    charge:    4.0198    magn:    0.1200    constr:    0.0000
     atom:   22    charge:    4.0198    magn:    0.1200    constr:    0.0000
     atom:   23    charge:    4.0198    magn:    0.1200    constr:    0.0000
     atom:   24    charge:    4.0198    magn:    0.1200    constr:    0.0000
     atom:   25    charge:    4.0198    magn:    0.1200    constr:    0.0000
     atom:   26    charge:    4.0198    magn:    0.1200    constr:    0.0000
     atom:   27    charge:    4.0198    magn:    0.1200    constr:    0.0000
     atom:   28    charge:    4.0198    magn:    0.1200    constr:    0.0000

     total cpu time spent up to now is    37772.1 secs

     End of self-consistent calculation

 ------ SPIN UP ------------


          k = 0.0000 0.0000 0.0000 ( 16459 PWs)   bands (ev):

   -79.3394 -79.3394 -79.3393 -79.3393 -79.1178 -79.1178 -79.1159 -79.1157
   -46.0108 -46.0108 -46.0095 -46.0094 -45.6224 -45.6223 -45.6163 -45.6163
   -45.2791 -45.2790 -45.2789 -45.2788 -45.0767 -45.0767 -45.0744 -45.0742
   -44.8613 -44.8612 -44.8606 -44.8605 -44.8494 -44.8492 -44.8215 -44.8215
   -11.3625 -11.1380 -10.9064 -10.7515  -9.7622  -9.7282  -9.7203  -9.6677
    -9.6444  -9.5293  -9.4847  -9.4635  -9.4480  -9.3989  -9.3766  -9.3133
     1.0456   1.0694   1.5481   1.5655   1.6428   1.7098   2.3192   2.3215
     2.3254   2.8184   2.9376   2.9975   3.1169   3.5815   3.7269   3.7850
     3.9984   4.0601   4.0698   4.1301   4.2630   4.3571   4.3654   4.4250
     4.4293   4.5196   4.5360   4.5372   4.6194   4.6806   4.7259   4.7584
     4.8323   4.9469   4.9734   4.9963   5.1749   5.2058   5.3323   5.3604
     5.3908   5.6611   5.9860   6.0006   6.0209   6.1804   6.1816   6.3624
     6.7546   6.9971   7.0304   7.0464   7.1020   7.1420   7.1759   7.3137
     7.3611   7.3871   7.3929   7.5131   7.5325   7.5629   7.8202   7.8354
     7.8575   7.9817   8.0018   8.0378   8.0634   8.0755   8.0957   8.2028
     8.3301   8.3354   8.3445   8.3987   8.6008   8.7302   8.8784   8.9283
     8.9617   9.0273   9.2110   9.2490   9.2878   9.4102   9.4312   9.6093
    11.3634  13.3466  13.9173  15.2413  15.7775  16.2609  16.3571  16.4452

          k = 0.0000 0.0000-0.3923 ( 16464 PWs)   bands (ev):

   -79.3393 -79.3393 -79.3393 -79.3393 -79.1168 -79.1168 -79.1168 -79.1168
   -46.0102 -46.0102 -46.0102 -46.0102 -45.6193 -45.6193 -45.6193 -45.6193
   -45.2790 -45.2790 -45.2789 -45.2789 -45.0755 -45.0755 -45.0754 -45.0754
   -44.8609 -44.8609 -44.8609 -44.8609 -44.8355 -44.8355 -44.8355 -44.8355
   -11.0792 -11.0792 -10.9914 -10.9914  -9.7383  -9.7383  -9.7090  -9.7090
    -9.6596  -9.6596  -9.4737  -9.4737  -9.4093  -9.4093  -9.3147  -9.3147
     1.3240   1.3240   1.4036   1.4036   2.0648   2.0648   2.1353   2.1353
     2.7456   2.7456   3.2143   3.2143   3.4425   3.4425   3.6931   3.6931
     3.7400   3.7400   3.9788   3.9788   4.1488   4.1488   4.3559   4.3559
     4.4157   4.4157   4.5031   4.5031   4.7088   4.7088   4.7488   4.7488
     4.8389   4.8389   5.0405   5.0405   5.1144   5.1144   5.4600   5.4600
     5.6222   5.6222   5.6773   5.6773   5.8051   5.8051   5.9231   5.9231
     7.0507   7.0507   7.0550   7.0550   7.1898   7.1898   7.1987   7.1987
     7.4876   7.4876   7.5320   7.5320   7.5992   7.5992   7.7476   7.7476
     8.0138   8.0138   8.0335   8.0335   8.0942   8.0942   8.1423   8.1423
     8.4155   8.4155   8.5165   8.5165   8.7289   8.7289   8.7542   8.7542
     8.8807   8.8807   8.8975   8.8975   9.1913   9.1913   9.4444   9.4444
    13.2844  13.2844  14.4109  14.4109  15.1270  15.1270  16.6318  16.6318

          k =-0.4876 0.0000 0.0000 ( 16398 PWs)   bands (ev):

   -79.3393 -79.3393 -79.3392 -79.3392 -79.1177 -79.1177 -79.1158 -79.1158
   -46.0101 -46.0101 -46.0100 -46.0100 -45.6223 -45.6223 -45.6163 -45.6163
   -45.2789 -45.2789 -45.2788 -45.2788 -45.0767 -45.0767 -45.0742 -45.0742
   -44.8609 -44.8609 -44.8609 -44.8609 -44.8492 -44.8492 -44.8215 -44.8215
   -10.9799 -10.9799 -10.7118 -10.7118 -10.0914 -10.0914  -9.8672  -9.8672
    -9.5960  -9.5960  -9.4231  -9.4231  -9.4101  -9.4101  -9.3818  -9.3818
     1.1115   1.1115   1.2153   1.2153   2.6731   2.6731   2.7663   2.7663
     2.9830   2.9830   3.0163   3.0163   3.2754   3.2754   3.3368   3.3368
     3.5587   3.5587   3.5788   3.5788   3.7438   3.7438   4.2510   4.2510
     4.3587   4.3587   4.4244   4.4244   4.8349   4.8349   4.9061   4.9061
     4.9761   4.9761   5.1067   5.1067   5.2438   5.2438   5.5466   5.5466
     5.6315   5.6315   5.8006   5.8006   6.0031   6.0031   6.6776   6.6776
     6.9928   6.9928   7.0503   7.0503   7.1328   7.1328   7.2248   7.2248
     7.2857   7.2857   7.3238   7.3238   7.4772   7.4772   7.7576   7.7576
     7.8340   7.8340   8.0448   8.0448   8.1360   8.1360   8.1968   8.1968
     8.5130   8.5130   8.7279   8.7279   8.7400   8.7400   8.8430   8.8430
     8.9471   8.9471   9.0092   9.0092   9.1712   9.1712   9.3765   9.3765
    13.9382  13.9382  14.8083  14.8083  15.2071  15.2071  15.4944  15.4944

          k =-0.4876 0.0000-0.3923 ( 16468 PWs)   bands (ev):

   -79.3393 -79.3393 -79.3393 -79.3393 -79.1168 -79.1168 -79.1168 -79.1168
   -46.0102 -46.0102 -46.0101 -46.0101 -45.6193 -45.6193 -45.6193 -45.6193
   -45.2790 -45.2790 -45.2790 -45.2790 -45.0755 -45.0755 -45.0755 -45.0755
   -44.8609 -44.8609 -44.8609 -44.8609 -44.8355 -44.8355 -44.8354 -44.8354
   -10.8437 -10.8437 -10.8122 -10.8122  -9.9879  -9.9879  -9.9812  -9.9812
    -9.5870  -9.5870  -9.5183  -9.5183  -9.3871  -9.3871  -9.3740  -9.3740
     1.2709   1.2709   1.2756   1.2756   2.7251   2.7251   2.8942   2.8942
     3.0629   3.0629   3.1509   3.1509   3.1705   3.1705   3.3838   3.3838
     3.5204   3.5204   3.6308   3.6308   3.7408   3.7408   3.8465   3.8465
     4.2844   4.2844   4.5706   4.5706   4.9986   4.9986   5.0699   5.0699
     5.1581   5.1581   5.2500   5.2500   5.2621   5.2621   5.3043   5.3043
     5.5088   5.5088   5.5984   5.5984   5.8833   5.8833   6.0426   6.0426
     7.0280   7.0280   7.1308   7.1308   7.2667   7.2667   7.2771   7.2771
     7.3145   7.3145   7.4453   7.4453   7.6820   7.6820   7.7009   7.7009
     7.7825   7.7825   7.9205   7.9205   7.9844   7.9844   8.0883   8.0883
     8.4276   8.4276   8.4296   8.4296   8.4441   8.4441   8.8095   8.8095
     8.9737   8.9737   9.0351   9.0351   9.1634   9.1634   9.5764   9.5764
    14.9113  14.9113  14.9814  14.9814  15.7684  15.7684  15.8185  15.8186

 ------ SPIN DOWN ----------


          k = 0.0000 0.0000 0.0000 ( 16459 PWs)   bands (ev):

   -75.1165 -75.1165 -75.1163 -75.1163 -75.0414 -75.0413 -75.0393 -75.0390
   -41.4353 -41.4352 -41.4333 -41.4331 -41.3127 -41.3125 -41.3042 -41.3041
   -41.2552 -41.2548 -41.2544 -41.2542 -41.1848 -41.1845 -41.1811 -41.1808
   -41.1118 -41.1117 -41.0892 -41.0891 -41.0884 -41.0882 -41.0785 -41.0785
   -11.1470 -10.9260 -10.6930 -10.5410  -9.5422  -9.5000  -9.4893  -9.4378
    -9.4058  -9.2799  -9.2408  -9.2168  -9.1937  -9.1478  -9.1210  -9.0605
     1.3133   1.3230   1.7631   1.8472   1.9073   2.0739   2.6667   2.6827
     2.7561   3.2080   3.2811   3.3473   3.5065   4.0214   4.0491   4.0899
     4.4366   4.6014   4.7614   4.8170   4.8178   4.9271   4.9481   4.9484
     4.9919   5.1009   5.1443   5.1462   5.3509   5.3686   5.4720   5.4991
     5.5514   5.5773   5.6745   5.7059   5.7803   5.7989   5.8549   5.9631
     6.2050   6.3522   6.4357   6.4615   6.6432   6.6679   6.7296   6.9109
     9.8616   9.9107  10.2225  10.2261  10.3307  10.3637  10.4153  10.4354
    10.4419  10.5493  10.6242  10.8489  10.9286  10.9524  10.9681  10.9745
    11.0024  11.0665  11.0830  11.1894  11.1897  11.1948  11.3651  11.3742
    11.8564  11.8953  11.9230  11.9872  11.9883  12.1623  12.1993  12.2777
    12.3110  12.3157  12.3511  12.4339  12.4561  12.4718  12.5346  12.7756
    12.7824  13.9286  14.4279  15.6758  16.1350  16.7181  16.7463  16.7818

          k = 0.0000 0.0000-0.3923 ( 16464 PWs)   bands (ev):

   -75.1165 -75.1165 -75.1164 -75.1164 -75.0403 -75.0403 -75.0403 -75.0403
   -41.4343 -41.4343 -41.4342 -41.4342 -41.3083 -41.3083 -41.3082 -41.3082
   -41.2547 -41.2547 -41.2545 -41.2545 -41.1827 -41.1827 -41.1827 -41.1827
   -41.0956 -41.0956 -41.0953 -41.0953 -41.0887 -41.0887 -41.0885 -41.0885
   -10.8653 -10.8653 -10.7797 -10.7797  -9.5036  -9.5036  -9.4842  -9.4842
    -9.4194  -9.4194  -9.2262  -9.2262  -9.1574  -9.1574  -9.0629  -9.0629
     1.5814   1.5814   1.6499   1.6499   2.4383   2.4383   2.4841   2.4841
     3.1120   3.1120   3.5491   3.5491   3.8155   3.8155   4.0552   4.0552
     4.2565   4.2565   4.5401   4.5401   4.7694   4.7694   4.8673   4.8673
     4.9554   4.9554   5.1390   5.1390   5.3458   5.3458   5.3716   5.3716
     5.6262   5.6262   5.7529   5.7529   5.8348   5.8348   6.0410   6.0410
     6.0845   6.0845   6.1628   6.1628   6.5547   6.5547   6.6804   6.6804
    10.3044  10.3044  10.3332  10.3332  10.3979  10.3979  10.4068  10.4068
    10.6150  10.6150  10.7214  10.7214  10.8523  10.8523  10.8824  10.8824
    10.9783  10.9783  11.0123  11.0123  11.2004  11.2004  11.2953  11.2953
    11.7849  11.7849  11.9090  11.9090  12.1684  12.1684  12.1734  12.1734
    12.3322  12.3322  12.3725  12.3725  12.5551  12.5551  12.6260  12.6260
    13.9025  13.9025  14.9264  14.9264  15.6360  15.6360  16.9875  16.9878

          k =-0.4876 0.0000 0.0000 ( 16398 PWs)   bands (ev):

   -75.1164 -75.1164 -75.1164 -75.1164 -75.0413 -75.0413 -75.0391 -75.0391
   -41.4342 -41.4342 -41.4341 -41.4341 -41.3125 -41.3125 -41.3041 -41.3041
   -41.2548 -41.2548 -41.2544 -41.2544 -41.1846 -41.1846 -41.1809 -41.1809
   -41.1117 -41.1117 -41.0887 -41.0887 -41.0886 -41.0886 -41.0784 -41.0784
   -10.7680 -10.7680 -10.4926 -10.4926  -9.8675  -9.8675  -9.6451  -9.6451
    -9.3471  -9.3471  -9.1700  -9.1700  -9.1609  -9.1609  -9.1366  -9.1366
     1.4056   1.4056   1.4520   1.4520   3.0058   3.0058   3.0829   3.0829
     3.3965   3.3965   3.4150   3.4150   3.7002   3.7002   3.7727   3.7727
     3.9808   3.9808   4.0824   4.0824   4.1315   4.1315   4.6120   4.6120
     4.9743   4.9743   5.0929   5.0929   5.5474   5.5474   5.6706   5.6706
     5.8116   5.8116   5.8497   5.8497   6.0477   6.0477   6.1148   6.1148
     6.2956   6.2956   6.4445   6.4445   6.5583   6.5583   7.0754   7.0754
     9.8971   9.8971  10.1444  10.1444  10.3501  10.3501  10.4545  10.4545
    10.5776  10.5776  10.6981  10.6981  10.9953  10.9953  11.0079  11.0079
    11.0802  11.0802  11.1433  11.1433  11.1691  11.1691  11.4232  11.4232
    11.8901  11.8901  12.0062  12.0062  12.0560  12.0560  12.1703  12.1703
    12.2144  12.2144  12.4106  12.4106  12.4641  12.4641  12.6463  12.6463
    14.3861  14.3861  15.1509  15.1509  15.7873  15.7873  16.0861  16.0864

          k =-0.4876 0.0000-0.3923 ( 16468 PWs)   bands (ev):

   -75.1165 -75.1165 -75.1164 -75.1164 -75.0403 -75.0403 -75.0403 -75.0403
   -41.4343 -41.4343 -41.4342 -41.4342 -41.3083 -41.3083 -41.3082 -41.3082
   -41.2548 -41.2548 -41.2545 -41.2545 -41.1829 -41.1829 -41.1827 -41.1827
   -41.0956 -41.0956 -41.0953 -41.0953 -41.0887 -41.0887 -41.0884 -41.0884
   -10.6290 -10.6290 -10.5975 -10.5975  -9.7654  -9.7654  -9.7561  -9.7561
    -9.3384  -9.3384  -9.2699  -9.2699  -9.1355  -9.1355  -9.1267  -9.1267
     1.5381   1.5381   1.5683   1.5683   3.1195   3.1195   3.3026   3.3026
     3.4452   3.4452   3.5528   3.5528   3.5751   3.5751   3.7315   3.7315
     3.9837   3.9837   4.0320   4.0320   4.3066   4.3066   4.3379   4.3379
     4.7094   4.7094   5.0572   5.0572   5.5318   5.5318   5.5582   5.5582
     5.7835   5.7835   5.8815   5.8815   6.1524   6.1524   6.1882   6.1882
     6.2726   6.2726   6.3275   6.3275   6.4551   6.4551   6.6656   6.6656
    10.2267  10.2267  10.2457  10.2457  10.4154  10.4154  10.4407  10.4407
    10.6946  10.6946  10.7185  10.7185  10.8987  10.8987  10.8988  10.8988
    11.0361  11.0361  11.1057  11.1057  11.1539  11.1539  11.2197  11.2197
    11.7237  11.7237  11.7580  11.7580  11.9739  11.9739  12.0391  12.0391
    12.1878  12.1878  12.3264  12.3264  12.4999  12.4999  12.8088  12.8088
    15.3542  15.3542  15.5058  15.5058  16.2738  16.2739  16.2898  16.2898

     the Fermi energy is    10.5168 ev

!    total energy              =   -3488.70871297 Ry

     total all-electron energy =    -25094.014681 Ry
     estimated scf accuracy    <          1.8E-10 Ry
     smearing contrib. (-TS)   =      -0.01066496 Ry
     internal energy E=F+TS    =   -3488.69804801 Ry

     The total energy is F=E-TS. E is the sum of the following terms:
     one-electron contribution =   -1483.40427990 Ry
     hartree contribution      =     868.70787984 Ry
     xc contribution           =    -368.41009874 Ry
     ewald contribution        =   -1547.83599969 Ry
     one-center paw contrib.   =    -957.75554951 Ry

     total magnetization       =    32.00 Bohr mag/cell
     absolute magnetization    =    32.10 Bohr mag/cell

     convergence has been achieved in  36 iterations

     negative rho (up, down):  0.000E+00 3.092E-03

     Forces acting on atoms (cartesian axes, Ry/au):

     atom    1 type  1   force =     0.00000000    0.00000000   -0.00000000
     atom    2 type  1   force =     0.00000000    0.00000000    0.00000000
     atom    3 type  1   force =     0.00000000    0.00000000    0.00000000
     atom    4 type  1   force =    -0.00000000    0.00000000    0.00000000
     atom    5 type  1   force =     0.00001635    0.00008677    0.00000000
     atom    6 type  1   force =    -0.00001635   -0.00008677   -0.00000000
     atom    7 type  1   force =     0.00001635   -0.00008677    0.00000000
     atom    8 type  1   force =    -0.00001635    0.00008677    0.00000000
     atom    9 type  2   force =     0.00014190   -0.00001670   -0.00000000
     atom   10 type  2   force =    -0.00014190    0.00001670   -0.00000000
     atom   11 type  2   force =     0.00014190    0.00001670    0.00000000
     atom   12 type  2   force =    -0.00014190   -0.00001670    0.00000000
     atom   13 type  3   force =     0.00010494   -0.00009842   -0.00000000
     atom   14 type  3   force =    -0.00010494    0.00009842    0.00000000
     atom   15 type  3   force =     0.00010494    0.00009842    0.00000000
     atom   16 type  3   force =    -0.00010494   -0.00009842   -0.00000000
     atom   17 type  3   force =     0.00008623    0.00002509    0.00000000
     atom   18 type  3   force =    -0.00008623   -0.00002509    0.00000000
     atom   19 type  3   force =     0.00008623   -0.00002509    0.00000000
     atom   20 type  3   force =    -0.00008623    0.00002509    0.00000000
     atom   21 type  3   force =    -0.00006157   -0.00005859    0.00010762
     atom   22 type  3   force =     0.00006157    0.00005859   -0.00010762
     atom   23 type  3   force =    -0.00006157    0.00005859   -0.00010762
     atom   24 type  3   force =     0.00006157   -0.00005859    0.00010762
     atom   25 type  3   force =     0.00006157    0.00005859    0.00010762
     atom   26 type  3   force =    -0.00006157   -0.00005859   -0.00010762
     atom   27 type  3   force =     0.00006157   -0.00005859   -0.00010762
     atom   28 type  3   force =    -0.00006157    0.00005859    0.00010762

     Total force =     0.000615     Total SCF correction =     0.000022


     Computing stress (Cartesian axis) and pressure


     negative rho (up, down):  0.000E+00 3.092E-03
          total   stress  (Ry/bohr**3)                   (kbar)     P=       -0.05
   0.00000125   0.00000000   0.00000000            0.18        0.00        0.00
   0.00000000   0.00000152   0.00000000            0.00        0.22        0.00
   0.00000000   0.00000000  -0.00000375            0.00        0.00       -0.55


     Writing output data file ./out/oliv.save/

     init_run     :     39.72s CPU     40.48s WALL (       2 calls)
     electrons    :  32574.33s CPU  32983.00s WALL (      28 calls)
     update_pot   :    155.59s CPU    156.25s WALL (      26 calls)
     forces       :    432.07s CPU    459.73s WALL (      28 calls)
     stress       :    600.14s CPU   4045.21s WALL (      28 calls)

     Called by init_run:
     wfcinit      :     27.62s CPU     27.92s WALL (       2 calls)
     potinit      :      5.61s CPU      5.72s WALL (       2 calls)
     hinit0       :      4.43s CPU      4.45s WALL (       2 calls)

     Called by electrons:
     c_bands      :  28747.55s CPU  29012.86s WALL (     523 calls)
     sum_band     :   2702.93s CPU   2789.56s WALL (     523 calls)
     v_of_rho     :     94.57s CPU     98.08s WALL (     540 calls)
     newd         :    481.67s CPU    525.87s WALL (     540 calls)
     PAW_pot      :    575.54s CPU    576.87s WALL (     566 calls)
     mix_rho      :     36.79s CPU     37.55s WALL (     523 calls)

     Called by c_bands:
     init_us_2    :     21.24s CPU     21.85s WALL (    9040 calls)
     cegterg      :  28556.65s CPU  28799.82s WALL (    4210 calls)

     Called by *egterg:
     cdiaghg      :   2368.36s CPU   2378.77s WALL (   20878 calls)
     h_psi        :  10995.32s CPU  11200.18s WALL (   21216 calls)
     s_psi        :   2338.12s CPU   2340.22s WALL (   21216 calls)
     g_psi        :     22.65s CPU     22.71s WALL (   16990 calls)

     Called by h_psi:
     h_psi:calbec :   3662.03s CPU   3671.87s WALL (   21216 calls)
     vloc_psi     :   4932.50s CPU   5126.09s WALL (   21216 calls)
     add_vuspsi   :   2392.99s CPU   2394.50s WALL (   21216 calls)

     General routines
     calbec       :   5387.13s CPU   5401.16s WALL (   26728 calls)
     fft          :    117.24s CPU    122.73s WALL (   14612 calls)
     ffts         :      5.65s CPU      5.95s WALL (    2126 calls)
     fftw         :   5633.69s CPU   5850.28s WALL ( 4113914 calls)
     interpolate  :      8.41s CPU      9.04s WALL (    1080 calls)

     Parallel routines
     fft_scatt_xy :    223.21s CPU    236.79s WALL ( 4130652 calls)
     fft_scatt_yz :   4889.38s CPU   5062.06s WALL ( 4130652 calls)

     PWSCF        :      9h25m CPU     10h30m WALL


   This run was terminated on:  22:23:17  27Aug2026            

=------------------------------------------------------------------------------=
   JOB DONE.
=------------------------------------------------------------------------------=
