
     Program PWSCF v.6.7MaX starts on 27Aug2026 at  8:22:39 

     This program is part of the open-source Quantum ESPRESSO suite
     for quantum simulation of materials; please cite
         "P. Giannozzi et al., J. Phys.:Condens. Matter 21 395502 (2009);
         "P. Giannozzi et al., J. Phys.:Condens. Matter 29 465901 (2017);
          URL http://www.quantum-espresso.org", 
     in publications or presentations arising from this work. More details at
     http://www.quantum-espresso.org/quote

     Parallel version (MPI), running on    14 processors

     MPI processes distributed on     1 nodes
     R & G space division:  proc/nbgrp/npool/nimage =      14
     Reading input from pw.in
Warning: card &FCP ignored
Warning: card / ignored
Warning: card &RISM ignored
Warning: card / ignored

     Current dimensions of program PWSCF are:
     Max number of different atomic species (ntypx) = 10
     Max number of k-points (npk) =  40000
     Max angular momentum in pseudopotentials (lmaxx) =  3
     file Mg.pbe-spnl-kjpaw_psl.1.0.0.UPF: wavefunction(s)  2P renormalized
     file Si.pbe-n-kjpaw_psl.1.0.0.UPF: wavefunction(s)  3S 3P renormalized
     file O.pbe-n-kjpaw_psl.1.0.0.UPF: wavefunction(s)  2S 2P renormalized

     Subspace diagonalization in iterative solution of the eigenvalue problem:
     one sub-group per band group will be used
     scalapack distributed-memory algorithm (size of sub-group:  3*  3 procs)

     Message from routine setup:
     using ibrav=0 with symmetry is DISCOURAGED, use correct ibrav instead

     Parallelization info
     --------------------
     sticks:   dense  smooth     PW     G-vecs:    dense   smooth      PW
     Min         473     236     66                24842     8786    1300
     Max         475     237     67                24844     8789    1302
     Sum        6629    3311    929               347803   123029   18213



     bravais-lattice index     =            0
     lattice parameter (alat)  =       8.9841  a.u.
     unit-cell volume          =    1959.1283 (a.u.)^3
     number of atoms/cell      =           28
     number of atomic types    =            3
     number of electrons       =       192.00
     number of Kohn-Sham states=          115
     kinetic-energy cutoff     =      60.0000  Ry
     charge density cutoff     =     480.0000  Ry
     scf convergence threshold =      1.0E-07
     mixing beta               =       0.3000
     number of iterations used =            8  plain     mixing
     energy convergence thresh.=      1.0E-05
     force convergence thresh. =      1.0E-04
     press convergence thresh. =      5.0E-01
     Exchange-correlation= SLA  PW   PBX  PBC
                           (   1   4   3   4   0   0   0)
     nstep                     =          250


     celldm(1)=   8.984136  celldm(2)=   0.000000  celldm(3)=   0.000000
     celldm(4)=   0.000000  celldm(5)=   0.000000  celldm(6)=   0.000000

     crystal axes: (cart. coord. in units of alat)
               a(1) = (   1.000000   0.000000   0.000000 )  
               a(2) = (   0.000000   2.146481   0.000000 )  
               a(3) = (   0.000000   0.000000   1.258656 )  

     reciprocal axes: (cart. coord. in units 2 pi/alat)
               b(1) = (  1.000000  0.000000  0.000000 )  
               b(2) = (  0.000000  0.465879  0.000000 )  
               b(3) = (  0.000000  0.000000  0.794499 )  


     PseudoPot. # 1 for Mg read from file:
     /mnt/c/Users/busta/Code/mqmqa/data/olivine/_dft/pseudo/Mg.pbe-spnl-kjpaw_psl.1.0.0.UPF
     MD5 check sum: fda14e0d92a6a9a5ebed782e5a4b3067
     Pseudo is Projector augmented-wave + core cor, Zval = 10.0
     Generated using &quot;atomic&quot; code by A. Dal Corso  v.6.3
     Shape of augmentation charge: PSQ
     Using radial grid of 1129 points,  4 beta functions with: 
                l(1) =   0
                l(2) =   0
                l(3) =   1
                l(4) =   1
     Q(r) pseudized with 0 coefficients 


     PseudoPot. # 2 for Si read from file:
     /mnt/c/Users/busta/Code/mqmqa/data/olivine/_dft/pseudo/Si.pbe-n-kjpaw_psl.1.0.0.UPF
     MD5 check sum: c39c59da582df4a0d9f10159256ea34e
     Pseudo is Projector augmented-wave + core cor, Zval =  4.0
     Generated using &quot;atomic&quot; code by A. Dal Corso  v.6.3
     Shape of augmentation charge: PSQ
     Using radial grid of 1141 points,  6 beta functions with: 
                l(1) =   0
                l(2) =   0
                l(3) =   1
                l(4) =   1
                l(5) =   2
                l(6) =   2
     Q(r) pseudized with 0 coefficients 


     PseudoPot. # 3 for O  read from file:
     /mnt/c/Users/busta/Code/mqmqa/data/olivine/_dft/pseudo/O.pbe-n-kjpaw_psl.1.0.0.UPF
     MD5 check sum: e99d9cef9b487d1ca56f5b95ecd0fd7a
     Pseudo is Projector augmented-wave + core cor, Zval =  6.0
     Generated using &quot;atomic&quot; code by A. Dal Corso  v.6.3
     Shape of augmentation charge: PSQ
     Using radial grid of 1095 points,  4 beta functions with: 
                l(1) =   0
                l(2) =   0
                l(3) =   1
                l(4) =   1
     Q(r) pseudized with 0 coefficients 


     atomic species   valence    mass     pseudopotential
        Mg            10.00    24.30500     Mg( 1.00)
        Si             4.00    28.08500     Si( 1.00)
        O              6.00    15.99900     O ( 1.00)

     Starting magnetic structure 
     atomic species   magnetization
        Mg           0.000
        Si           0.000
        O            0.000

      8 Sym. Ops., with inversion, found ( 6 have fractional translation)



   Cartesian axes

     site n.     atom                  positions (alat units)
         1           Mg  tau(   1) = (   0.0000000   0.0000000   0.0000000  )
         2           Mg  tau(   2) = (   0.5000000   1.0732405   0.0000000  )
         3           Mg  tau(   3) = (   0.0000000   0.0000000   0.6293278  )
         4           Mg  tau(   4) = (   0.5000000   1.0732405   0.6293278  )
         5           Mg  tau(   5) = (   0.0147000   0.5941459   0.9439916  )
         6           Mg  tau(   6) = (   0.9853000   1.5523351   0.3146639  )
         7           Mg  tau(   7) = (   0.5147000   0.4790946   0.3146639  )
         8           Mg  tau(   8) = (   0.4853000   1.6673864   0.9439916  )
         9           Si  tau(   9) = (   0.0701000   0.8607389   0.3146639  )
        10           Si  tau(  10) = (   0.9299000   1.2857421   0.9439916  )
        11           Si  tau(  11) = (   0.5701000   0.2125016   0.9439916  )
        12           Si  tau(  12) = (   0.4299000   1.9339794   0.3146639  )
        13           O   tau(  13) = (   0.2461000   0.1833095   0.9439916  )
        14           O   tau(  14) = (   0.7539000   1.9631715   0.3146639  )
        15           O   tau(  15) = (   0.7461000   0.8899310   0.3146639  )
        16           O   tau(  16) = (   0.2539000   1.2565500   0.9439916  )
        17           O   tau(  17) = (   0.2809000   0.1047483   0.3146639  )
        18           O   tau(  18) = (   0.7191000   2.0417327   0.9439916  )
        19           O   tau(  19) = (   0.7809000   0.9684922   0.9439916  )
        20           O   tau(  20) = (   0.2191000   1.1779888   0.3146639  )
        21           O   tau(  21) = (   0.2222000   0.7424678   0.5588430  )
        22           O   tau(  22) = (   0.7778000   1.4040132   0.6998125  )
        23           O   tau(  23) = (   0.7222000   0.3307727   0.6998125  )
        24           O   tau(  24) = (   0.2778000   1.8157083   0.5588430  )
        25           O   tau(  25) = (   0.7778000   1.4040132   1.1881708  )
        26           O   tau(  26) = (   0.2222000   0.7424678   0.0704847  )
        27           O   tau(  27) = (   0.2778000   1.8157083   0.0704847  )
        28           O   tau(  28) = (   0.7222000   0.3307727   1.1881708  )

     number of k points=     4  Gaussian smearing, width (Ry)=  0.0100
                       cart. coord. in units 2pi/alat
        k(    1) = (   0.0000000   0.0000000   0.0000000), wk =   0.2500000
        k(    2) = (   0.0000000   0.0000000  -0.3972493), wk =   0.2500000
        k(    3) = (  -0.5000000   0.0000000   0.0000000), wk =   0.2500000
        k(    4) = (  -0.5000000   0.0000000  -0.3972493), wk =   0.2500000

     Dense  grid:   347803 G-vectors     FFT dimensions: (  64, 144,  80)

     Smooth grid:   123029 G-vectors     FFT dimensions: (  48,  96,  60)

     Estimated max dynamical RAM per process >     145.97 MB

     Estimated total dynamical RAM >       2.00 GB

     Check: negative core charge=   -0.000008
     Generating pointlists ...
     new r_m :   0.1793 (alat units)  1.6107 (a.u.) for type    1
     new r_m :   0.1283 (alat units)  1.1527 (a.u.) for type    2
     new r_m :   0.1283 (alat units)  1.1527 (a.u.) for type    3

     Initial potential from superposition of free atoms

     starting charge  191.99035, renormalised to  192.00000
     Starting wfcs are  120 randomized atomic wfcs
     Checking if some PAW data can be deallocated... 

     total cpu time spent up to now is       12.4 secs

     Self-consistent Calculation

     iteration #  1     ecut=    60.00 Ry     beta= 0.30
     Davidson diagonalization with overlap
     ethr =  1.00E-02,  avg # of iterations =  7.2

     total cpu time spent up to now is       58.2 secs

     total energy              =   -1985.68953976 Ry
     estimated scf accuracy    <       8.59052903 Ry

     total magnetization       =     0.00 Bohr mag/cell
     absolute magnetization    =     0.04 Bohr mag/cell

     iteration #  2     ecut=    60.00 Ry     beta= 0.30
     Davidson diagonalization with overlap
     ethr =  4.47E-03,  avg # of iterations =  2.5

     total cpu time spent up to now is       90.2 secs

     total energy              =   -1986.25487184 Ry
     estimated scf accuracy    <       1.36253775 Ry

     total magnetization       =    -0.00 Bohr mag/cell
     absolute magnetization    =     0.12 Bohr mag/cell

     iteration #  3     ecut=    60.00 Ry     beta= 0.30
     Davidson diagonalization with overlap
     ethr =  7.10E-04,  avg # of iterations =  5.6

     total cpu time spent up to now is      146.8 secs

     total energy              =   -1987.89540051 Ry
     estimated scf accuracy    <       1.19824974 Ry

     total magnetization       =     0.00 Bohr mag/cell
     absolute magnetization    =     0.07 Bohr mag/cell

     iteration #  4     ecut=    60.00 Ry     beta= 0.30
     Davidson diagonalization with overlap
     ethr =  6.24E-04,  avg # of iterations =  1.4

     total cpu time spent up to now is      174.6 secs

     total energy              =   -1987.63465083 Ry
     estimated scf accuracy    <       0.97913275 Ry

     total magnetization       =    -0.00 Bohr mag/cell
     absolute magnetization    =     0.04 Bohr mag/cell

     iteration #  5     ecut=    60.00 Ry     beta= 0.30
     Davidson diagonalization with overlap
     ethr =  5.10E-04,  avg # of iterations =  1.6

     total cpu time spent up to now is      199.0 secs

     total energy              =   -1987.46436139 Ry
     estimated scf accuracy    <       0.35345981 Ry

     total magnetization       =     0.00 Bohr mag/cell
     absolute magnetization    =     0.05 Bohr mag/cell

     iteration #  6     ecut=    60.00 Ry     beta= 0.30
     Davidson diagonalization with overlap
     ethr =  1.84E-04,  avg # of iterations =  5.5

     total cpu time spent up to now is      239.2 secs

     total energy              =   -1987.74415755 Ry
     estimated scf accuracy    <       0.23656571 Ry

     total magnetization       =     0.00 Bohr mag/cell
     absolute magnetization    =     0.03 Bohr mag/cell

     iteration #  7     ecut=    60.00 Ry     beta= 0.30
     Davidson diagonalization with overlap
     ethr =  1.23E-04,  avg # of iterations =  1.9

     total cpu time spent up to now is      261.9 secs

     total energy              =   -1987.72756881 Ry
     estimated scf accuracy    <       0.24244023 Ry

     total magnetization       =     0.00 Bohr mag/cell
     absolute magnetization    =     0.02 Bohr mag/cell

     iteration #  8     ecut=    60.00 Ry     beta= 0.30
     Davidson diagonalization with overlap
     ethr =  1.23E-04,  avg # of iterations =  1.6

     total cpu time spent up to now is      283.7 secs

     total energy              =   -1987.58796945 Ry
     estimated scf accuracy    <       0.20818142 Ry

     total magnetization       =     0.00 Bohr mag/cell
     absolute magnetization    =     0.02 Bohr mag/cell

     iteration #  9     ecut=    60.00 Ry     beta= 0.30
     Davidson diagonalization with overlap
     ethr =  1.08E-04,  avg # of iterations =  5.9

     total cpu time spent up to now is      321.9 secs

     total energy              =   -1987.65284831 Ry
     estimated scf accuracy    <       0.02973745 Ry

     total magnetization       =    -0.00 Bohr mag/cell
     absolute magnetization    =     0.04 Bohr mag/cell

     iteration # 10     ecut=    60.00 Ry     beta= 0.30
     Davidson diagonalization with overlap
     ethr =  1.55E-05,  avg # of iterations = 11.8

     total cpu time spent up to now is      362.5 secs

     total energy              =   -1987.65753287 Ry
     estimated scf accuracy    <       0.00368465 Ry

     total magnetization       =     0.00 Bohr mag/cell
     absolute magnetization    =     0.04 Bohr mag/cell

     iteration # 11     ecut=    60.00 Ry     beta= 0.30
     Davidson diagonalization with overlap
     c_bands:  3 eigenvalues not converged
     c_bands:  1 eigenvalues not converged
     ethr =  1.92E-06,  avg # of iterations =  9.8

     total cpu time spent up to now is      421.5 secs

     total energy              =   -1987.66047734 Ry
     estimated scf accuracy    <       0.00203927 Ry

     total magnetization       =     0.00 Bohr mag/cell
     absolute magnetization    =     0.03 Bohr mag/cell

     iteration # 12     ecut=    60.00 Ry     beta= 0.30
     Davidson diagonalization with overlap
     ethr =  1.06E-06,  avg # of iterations =  7.8

     total cpu time spent up to now is      480.7 secs

     total energy              =   -1987.66100864 Ry
     estimated scf accuracy    <       0.00756350 Ry

     total magnetization       =     0.00 Bohr mag/cell
     absolute magnetization    =     0.03 Bohr mag/cell

     iteration # 13     ecut=    60.00 Ry     beta= 0.30
     Davidson diagonalization with overlap
     ethr =  1.06E-06,  avg # of iterations =  2.2

     total cpu time spent up to now is      513.6 secs

     total energy              =   -1987.66056384 Ry
     estimated scf accuracy    <       0.00220815 Ry

     total magnetization       =    -0.00 Bohr mag/cell
     absolute magnetization    =     0.02 Bohr mag/cell

     iteration # 14     ecut=    60.00 Ry     beta= 0.30
     Davidson diagonalization with overlap
     ethr =  1.06E-06,  avg # of iterations =  6.0

     total cpu time spent up to now is      555.6 secs

     total energy              =   -1987.66132578 Ry
     estimated scf accuracy    <       0.00004744 Ry

     total magnetization       =     0.00 Bohr mag/cell
     absolute magnetization    =     0.01 Bohr mag/cell

     iteration # 15     ecut=    60.00 Ry     beta= 0.30
     Davidson diagonalization with overlap
     ethr =  2.47E-08,  avg # of iterations =  5.9

     total cpu time spent up to now is      602.4 secs

     total energy              =   -1987.66137703 Ry
     estimated scf accuracy    <       0.00003230 Ry

     total magnetization       =    -0.00 Bohr mag/cell
     absolute magnetization    =     0.01 Bohr mag/cell

     iteration # 16     ecut=    60.00 Ry     beta= 0.30
     Davidson diagonalization with overlap
     ethr =  1.68E-08,  avg # of iterations =  1.8

     total cpu time spent up to now is      631.1 secs

     total energy              =   -1987.66137175 Ry
     estimated scf accuracy    <       0.00002680 Ry

     total magnetization       =    -0.00 Bohr mag/cell
     absolute magnetization    =     0.01 Bohr mag/cell

     iteration # 17     ecut=    60.00 Ry     beta= 0.30
     Davidson diagonalization with overlap
     ethr =  1.40E-08,  avg # of iterations =  1.9

     total cpu time spent up to now is      659.2 secs

     total energy              =   -1987.66137003 Ry
     estimated scf accuracy    <       0.00001191 Ry

     total magnetization       =    -0.00 Bohr mag/cell
     absolute magnetization    =     0.00 Bohr mag/cell

     iteration # 18     ecut=    60.00 Ry     beta= 0.30
     Davidson diagonalization with overlap
     ethr =  6.20E-09,  avg # of iterations =  2.0

     total cpu time spent up to now is      693.3 secs

     total energy              =   -1987.66137075 Ry
     estimated scf accuracy    <       0.00000358 Ry

     total magnetization       =     0.00 Bohr mag/cell
     absolute magnetization    =     0.00 Bohr mag/cell

     iteration # 19     ecut=    60.00 Ry     beta= 0.30
     Davidson diagonalization with overlap
     ethr =  1.87E-09,  avg # of iterations =  4.2

     total cpu time spent up to now is      729.1 secs

     total energy              =   -1987.66137076 Ry
     estimated scf accuracy    <       0.00000169 Ry

     total magnetization       =    -0.00 Bohr mag/cell
     absolute magnetization    =     0.00 Bohr mag/cell

     iteration # 20     ecut=    60.00 Ry     beta= 0.30
     Davidson diagonalization with overlap
     ethr =  8.82E-10,  avg # of iterations =  4.5

     total cpu time spent up to now is      763.0 secs

     total energy              =   -1987.66137124 Ry
     estimated scf accuracy    <       0.00000037 Ry

     total magnetization       =    -0.00 Bohr mag/cell
     absolute magnetization    =     0.00 Bohr mag/cell

     iteration # 21     ecut=    60.00 Ry     beta= 0.30
     Davidson diagonalization with overlap
     ethr =  1.91E-10,  avg # of iterations =  5.1

     total cpu time spent up to now is      804.6 secs

     total energy              =   -1987.66137119 Ry
     estimated scf accuracy    <       0.00000043 Ry

     total magnetization       =    -0.00 Bohr mag/cell
     absolute magnetization    =     0.00 Bohr mag/cell

     iteration # 22     ecut=    60.00 Ry     beta= 0.30
     Davidson diagonalization with overlap
     ethr =  1.91E-10,  avg # of iterations =  2.1

     total cpu time spent up to now is      833.2 secs

     total energy              =   -1987.66137116 Ry
     estimated scf accuracy    <       0.00000012 Ry

     total magnetization       =    -0.00 Bohr mag/cell
     absolute magnetization    =     0.00 Bohr mag/cell

     iteration # 23     ecut=    60.00 Ry     beta= 0.30
     Davidson diagonalization with overlap
     ethr =  6.18E-11,  avg # of iterations =  4.6

     Magnetic moment per site:
     atom:    1    charge:    8.1450    magn:   -0.0000    constr:    0.0000
     atom:    2    charge:    8.1450    magn:   -0.0000    constr:    0.0000
     atom:    3    charge:    8.1450    magn:   -0.0000    constr:    0.0000
     atom:    4    charge:    8.1450    magn:   -0.0000    constr:    0.0000
     atom:    5    charge:    8.0879    magn:    0.0000    constr:    0.0000
     atom:    6    charge:    8.0879    magn:    0.0000    constr:    0.0000
     atom:    7    charge:    8.0879    magn:    0.0000    constr:    0.0000
     atom:    8    charge:    8.0879    magn:    0.0000    constr:    0.0000
     atom:    9    charge:    0.4754    magn:   -0.0000    constr:    0.0000
     atom:   10    charge:    0.4754    magn:   -0.0000    constr:    0.0000
     atom:   11    charge:    0.4754    magn:   -0.0000    constr:    0.0000
     atom:   12    charge:    0.4754    magn:   -0.0000    constr:    0.0000
     atom:   13    charge:    4.1012    magn:   -0.0000    constr:    0.0000
     atom:   14    charge:    4.1012    magn:   -0.0000    constr:    0.0000
     atom:   15    charge:    4.1012    magn:   -0.0000    constr:    0.0000
     atom:   16    charge:    4.1012    magn:   -0.0000    constr:    0.0000
     atom:   17    charge:    4.0717    magn:   -0.0000    constr:    0.0000
     atom:   18    charge:    4.0717    magn:   -0.0000    constr:    0.0000
     atom:   19    charge:    4.0717    magn:   -0.0000    constr:    0.0000
     atom:   20    charge:    4.0717    magn:   -0.0000    constr:    0.0000
     atom:   21    charge:    4.1432    magn:    0.0000    constr:    0.0000
     atom:   22    charge:    4.1432    magn:    0.0000    constr:    0.0000
     atom:   23    charge:    4.1432    magn:    0.0000    constr:    0.0000
     atom:   24    charge:    4.1432    magn:    0.0000    constr:    0.0000
     atom:   25    charge:    4.1432    magn:    0.0000    constr:    0.0000
     atom:   26    charge:    4.1432    magn:    0.0000    constr:    0.0000
     atom:   27    charge:    4.1432    magn:    0.0000    constr:    0.0000
     atom:   28    charge:    4.1432    magn:    0.0000    constr:    0.0000

     total cpu time spent up to now is      878.1 secs

     End of self-consistent calculation

 ------ SPIN UP ------------


          k = 0.0000 0.0000 0.0000 ( 15339 PWs)   bands (ev):

   -67.0184 -67.0184 -67.0183 -67.0183 -66.3745 -66.3745 -66.3718 -66.3717
   -33.7948 -33.7948 -33.7926 -33.7926 -33.7532 -33.7532 -33.7499 -33.7499
   -33.7429 -33.7429 -33.7426 -33.7424 -33.1609 -33.1609 -33.1444 -33.1442
   -33.1442 -33.1441 -33.1185 -33.1185 -33.1016 -33.1016 -33.0882 -33.0882
   -13.4277 -13.2400 -13.0714 -12.9353 -11.4479 -11.4043 -11.3550 -11.3171
   -11.2720 -11.1955 -11.1287 -11.0558 -10.3734 -10.2637 -10.2125 -10.1765
    -0.3754  -0.2408   0.1668   0.2959   0.5658   0.5985   1.1291   1.2476
     1.5054   1.5119   1.6285   1.8340   2.0466   2.3383   2.3533   2.4810
     2.8784   2.9647   2.9818   3.0162   3.2561   3.3075   3.4292   3.4423
     3.5102   3.7206   3.7613   3.7755   3.8984   4.0862   4.1913   4.2658
     4.3287   4.4005   4.4836   4.7665   4.8173   4.9049   4.9469   5.0255
     5.0817   5.0989   5.3757   5.4940   5.7063   5.7414   5.8546   6.1718
    10.7378  12.7806  12.8143  13.2970  14.0935  14.9023  14.9335  15.0940
    15.3200  15.4876  15.6583  15.8376  16.0180  16.0237  16.3383  16.4216
    16.9435  16.9887  17.0431

          k = 0.0000 0.0000-0.3972 ( 15392 PWs)   bands (ev):

   -67.0183 -67.0183 -67.0183 -67.0183 -66.3731 -66.3731 -66.3731 -66.3731
   -33.7938 -33.7938 -33.7937 -33.7937 -33.7516 -33.7516 -33.7516 -33.7516
   -33.7427 -33.7427 -33.7426 -33.7426 -33.1483 -33.1483 -33.1482 -33.1482
   -33.1347 -33.1347 -33.1347 -33.1347 -33.0960 -33.0960 -33.0960 -33.0960
   -13.1891 -13.1891 -13.1353 -13.1353 -11.4024 -11.4024 -11.4020 -11.4020
   -11.1965 -11.1965 -11.1531 -11.1531 -10.2706 -10.2706 -10.2140 -10.2140
    -0.0202  -0.0202   0.0083   0.0083   1.0355   1.0355   1.1781   1.1781
     1.4688   1.4688   2.0252   2.0252   2.1275   2.1275   2.4841   2.4841
     2.9678   2.9678   3.0008   3.0008   3.1971   3.1971   3.2733   3.2733
     3.3882   3.3882   3.5720   3.5720   3.8402   3.8402   4.0874   4.0874
     4.3327   4.3327   4.6110   4.6110   4.7428   4.7428   4.8534   4.8534
     5.2397   5.2397   5.3586   5.3586   5.6287   5.6287   5.8462   5.8462
    12.2414  12.2414  13.2549  13.2549  14.2170  14.2170  15.5207  15.5207
    15.9081  15.9081  16.1799  16.1800  16.4209  16.4209  16.6547  16.6547
    17.0646  17.1043  17.1100

          k =-0.5000 0.0000 0.0000 ( 15374 PWs)   bands (ev):

   -67.0183 -67.0183 -67.0183 -67.0183 -66.3745 -66.3745 -66.3718 -66.3718
   -33.7939 -33.7939 -33.7938 -33.7938 -33.7516 -33.7516 -33.7515 -33.7515
   -33.7427 -33.7427 -33.7426 -33.7426 -33.1609 -33.1609 -33.1442 -33.1442
   -33.1442 -33.1442 -33.1185 -33.1185 -33.1019 -33.1019 -33.0883 -33.0883
   -13.0812 -13.0812 -12.8933 -12.8933 -11.7187 -11.7187 -11.5563 -11.5563
   -11.1592 -11.1592 -11.1542 -11.1542 -10.3551 -10.3551 -10.1927 -10.1927
     0.2446   0.2446   0.3378   0.3378   1.3087   1.3087   1.3710   1.3710
     1.5809   1.5809   1.7705   1.7705   1.8864   1.8864   2.0981   2.0981
     2.4325   2.4325   2.6682   2.6682   2.7596   2.7596   2.9619   2.9619
     3.4416   3.4416   3.6714   3.6714   3.7254   3.7254   4.3772   4.3772
     4.6747   4.6747   4.9089   4.9089   5.0857   5.0857   5.1964   5.1964
     5.4148   5.4148   5.6373   5.6373   5.6884   5.6884   5.9834   5.9834
    12.6257  12.6257  13.4476  13.4476  14.4041  14.4041  15.0165  15.0165
    15.1162  15.1162  15.1902  15.1902  15.8166  15.8166  16.3332  16.3332
    17.2980  17.2986  17.5513

          k =-0.5000 0.0000-0.3972 ( 15436 PWs)   bands (ev):

   -67.0183 -67.0183 -67.0183 -67.0183 -66.3731 -66.3731 -66.3731 -66.3731
   -33.7939 -33.7939 -33.7939 -33.7939 -33.7516 -33.7516 -33.7516 -33.7516
   -33.7427 -33.7427 -33.7427 -33.7427 -33.1483 -33.1483 -33.1483 -33.1483
   -33.1347 -33.1347 -33.1347 -33.1347 -33.0962 -33.0962 -33.0961 -33.0961
   -12.9863 -12.9863 -12.9517 -12.9517 -11.6806 -11.6806 -11.6421 -11.6421
   -11.1865 -11.1865 -11.1419 -11.1419 -10.3172 -10.3172 -10.2351 -10.2351
     0.4193   0.4193   0.5788   0.5788   1.3636   1.3636   1.6115   1.6115
     1.8087   1.8087   1.9404   1.9404   1.9467   1.9467   2.1428   2.1428
     2.2537   2.2537   2.3885   2.3885   2.6127   2.6127   2.7386   2.7386
     3.2260   3.2260   3.2946   3.2946   4.1022   4.1022   4.1537   4.1537
     4.4719   4.4719   4.9162   4.9162   4.9767   4.9767   5.2380   5.2380
     5.4371   5.4371   5.5161   5.5161   5.6876   5.6876   5.8506   5.8506
    13.1648  13.1648  13.6381  13.6381  14.7638  14.7638  14.9906  14.9906
    15.6331  15.6331  15.6458  15.6458  16.1178  16.1178  16.5063  16.5063
    16.6343  16.6344  17.0458

 ------ SPIN DOWN ----------


          k = 0.0000 0.0000 0.0000 ( 15339 PWs)   bands (ev):

   -67.0184 -67.0184 -67.0183 -67.0183 -66.3745 -66.3745 -66.3718 -66.3717
   -33.7948 -33.7948 -33.7926 -33.7926 -33.7532 -33.7532 -33.7499 -33.7499
   -33.7429 -33.7429 -33.7426 -33.7424 -33.1609 -33.1609 -33.1444 -33.1442
   -33.1442 -33.1441 -33.1185 -33.1185 -33.1016 -33.1016 -33.0882 -33.0882
   -13.4277 -13.2400 -13.0714 -12.9353 -11.4479 -11.4044 -11.3550 -11.3171
   -11.2720 -11.1955 -11.1287 -11.0558 -10.3734 -10.2637 -10.2125 -10.1765
    -0.3754  -0.2408   0.1668   0.2959   0.5658   0.5985   1.1291   1.2476
     1.5054   1.5119   1.6285   1.8340   2.0466   2.3383   2.3533   2.4810
     2.8784   2.9647   2.9818   3.0162   3.2561   3.3075   3.4292   3.4423
     3.5102   3.7206   3.7613   3.7755   3.8984   4.0862   4.1913   4.2658
     4.3287   4.4005   4.4836   4.7665   4.8173   4.9049   4.9469   5.0255
     5.0817   5.0989   5.3757   5.4940   5.7063   5.7414   5.8546   6.1718
    10.7378  12.7806  12.8143  13.2971  14.0935  14.9023  14.9335  15.0940
    15.3200  15.4876  15.6583  15.8376  16.0180  16.0237  16.3383  16.4216
    16.9435  16.9887  17.0431

          k = 0.0000 0.0000-0.3972 ( 15392 PWs)   bands (ev):

   -67.0183 -67.0183 -67.0183 -67.0183 -66.3731 -66.3731 -66.3731 -66.3731
   -33.7938 -33.7938 -33.7937 -33.7937 -33.7516 -33.7516 -33.7516 -33.7516
   -33.7427 -33.7427 -33.7426 -33.7426 -33.1483 -33.1483 -33.1482 -33.1482
   -33.1347 -33.1347 -33.1347 -33.1347 -33.0960 -33.0960 -33.0960 -33.0960
   -13.1891 -13.1891 -13.1353 -13.1353 -11.4024 -11.4024 -11.4020 -11.4020
   -11.1965 -11.1965 -11.1531 -11.1531 -10.2706 -10.2706 -10.2140 -10.2140
    -0.0202  -0.0202   0.0083   0.0083   1.0355   1.0355   1.1781   1.1781
     1.4688   1.4688   2.0252   2.0252   2.1275   2.1275   2.4841   2.4841
     2.9678   2.9678   3.0008   3.0008   3.1971   3.1971   3.2733   3.2733
     3.3882   3.3882   3.5720   3.5720   3.8402   3.8402   4.0874   4.0874
     4.3327   4.3327   4.6110   4.6110   4.7428   4.7428   4.8534   4.8534
     5.2397   5.2397   5.3586   5.3586   5.6287   5.6287   5.8462   5.8462
    12.2414  12.2414  13.2549  13.2549  14.2170  14.2170  15.5208  15.5208
    15.9081  15.9081  16.1799  16.1799  16.4209  16.4209  16.6547  16.6547
    17.0646  17.1059  17.1100

          k =-0.5000 0.0000 0.0000 ( 15374 PWs)   bands (ev):

   -67.0183 -67.0183 -67.0183 -67.0183 -66.3745 -66.3745 -66.3718 -66.3718
   -33.7939 -33.7939 -33.7938 -33.7938 -33.7516 -33.7516 -33.7515 -33.7515
   -33.7427 -33.7427 -33.7426 -33.7426 -33.1609 -33.1609 -33.1442 -33.1442
   -33.1442 -33.1442 -33.1185 -33.1185 -33.1019 -33.1019 -33.0883 -33.0883
   -13.0812 -13.0812 -12.8933 -12.8933 -11.7187 -11.7187 -11.5563 -11.5563
   -11.1592 -11.1592 -11.1542 -11.1542 -10.3551 -10.3551 -10.1927 -10.1927
     0.2446   0.2446   0.3378   0.3378   1.3087   1.3087   1.3710   1.3710
     1.5809   1.5809   1.7705   1.7705   1.8864   1.8864   2.0981   2.0981
     2.4325   2.4325   2.6682   2.6682   2.7596   2.7596   2.9619   2.9619
     3.4416   3.4416   3.6714   3.6714   3.7254   3.7254   4.3772   4.3772
     4.6747   4.6747   4.9089   4.9089   5.0857   5.0857   5.1964   5.1964
     5.4148   5.4148   5.6373   5.6373   5.6884   5.6884   5.9834   5.9834
    12.6257  12.6257  13.4476  13.4476  14.4041  14.4041  15.0165  15.0165
    15.1163  15.1163  15.1902  15.1902  15.8166  15.8166  16.3332  16.3332
    17.2982  17.2988  17.5511

          k =-0.5000 0.0000-0.3972 ( 15436 PWs)   bands (ev):

   -67.0183 -67.0183 -67.0183 -67.0183 -66.3731 -66.3731 -66.3731 -66.3731
   -33.7939 -33.7939 -33.7939 -33.7939 -33.7516 -33.7516 -33.7516 -33.7516
   -33.7427 -33.7427 -33.7427 -33.7427 -33.1483 -33.1483 -33.1483 -33.1483
   -33.1347 -33.1347 -33.1347 -33.1347 -33.0962 -33.0962 -33.0961 -33.0961
   -12.9863 -12.9863 -12.9517 -12.9517 -11.6806 -11.6806 -11.6421 -11.6421
   -11.1864 -11.1864 -11.1419 -11.1419 -10.3172 -10.3172 -10.2351 -10.2351
     0.4193   0.4193   0.5788   0.5788   1.3636   1.3636   1.6115   1.6115
     1.8087   1.8087   1.9404   1.9404   1.9467   1.9467   2.1428   2.1428
     2.2537   2.2537   2.3885   2.3885   2.6127   2.6127   2.7386   2.7386
     3.2260   3.2260   3.2946   3.2946   4.1022   4.1022   4.1537   4.1537
     4.4719   4.4719   4.9161   4.9161   4.9767   4.9767   5.2380   5.2380
     5.4371   5.4371   5.5161   5.5161   5.6876   5.6876   5.8506   5.8506
    13.1648  13.1648  13.6381  13.6381  14.7638  14.7638  14.9906  14.9906
    15.6331  15.6331  15.6458  15.6458  16.1178  16.1178  16.5063  16.5063
    16.6343  16.6344  17.0458

     the Fermi energy is     7.1842 ev

!    total energy              =   -1987.66137123 Ry

     total all-electron energy =     -7936.757224 Ry
     estimated scf accuracy    <          7.4E-09 Ry
     smearing contrib. (-TS)   =      -0.00000000 Ry
     internal energy E=F+TS    =   -1987.66137123 Ry

     The total energy is F=E-TS. E is the sum of the following terms:
     one-electron contribution =    -937.88755387 Ry
     hartree contribution      =     546.65636766 Ry
     xc contribution           =    -289.94857826 Ry
     ewald contribution        =    -891.13407589 Ry
     one-center paw contrib.   =    -415.34753086 Ry

     total magnetization       =     0.00 Bohr mag/cell
     absolute magnetization    =     0.00 Bohr mag/cell

     convergence has been achieved in  23 iterations

     Forces acting on atoms (cartesian axes, Ry/au):

     atom    1 type  1   force =     0.00000000    0.00000000    0.00000000
     atom    2 type  1   force =    -0.00000000    0.00000000    0.00000000
     atom    3 type  1   force =     0.00000000    0.00000000    0.00000000
     atom    4 type  1   force =     0.00000000    0.00000000   -0.00000000
     atom    5 type  1   force =    -0.00840519    0.01694436    0.00000000
     atom    6 type  1   force =     0.00840519   -0.01694436   -0.00000000
     atom    7 type  1   force =    -0.00840519   -0.01694436   -0.00000000
     atom    8 type  1   force =     0.00840519    0.01694436    0.00000000
     atom    9 type  2   force =    -0.11664829    0.24282696    0.00000000
     atom   10 type  2   force =     0.11664829   -0.24282696    0.00000000
     atom   11 type  2   force =    -0.11664829   -0.24282696   -0.00000000
     atom   12 type  2   force =     0.11664829    0.24282696   -0.00000000
     atom   13 type  3   force =    -0.14131443    0.02674249   -0.00000000
     atom   14 type  3   force =     0.14131443   -0.02674249    0.00000000
     atom   15 type  3   force =    -0.14131443   -0.02674249    0.00000000
     atom   16 type  3   force =     0.14131443    0.02674249    0.00000000
     atom   17 type  3   force =    -0.00962990    0.10243010    0.00000000
     atom   18 type  3   force =     0.00962990   -0.10243010    0.00000000
     atom   19 type  3   force =    -0.00962990   -0.10243010   -0.00000000
     atom   20 type  3   force =     0.00962990    0.10243010    0.00000000
     atom   21 type  3   force =     0.12486288   -0.18070174    0.32037633
     atom   22 type  3   force =    -0.12486288    0.18070174   -0.32037633
     atom   23 type  3   force =     0.12486288    0.18070174   -0.32037633
     atom   24 type  3   force =    -0.12486288   -0.18070174    0.32037633
     atom   25 type  3   force =    -0.12486288    0.18070174    0.32037633
     atom   26 type  3   force =     0.12486288   -0.18070174   -0.32037633
     atom   27 type  3   force =    -0.12486288   -0.18070174   -0.32037633
     atom   28 type  3   force =     0.12486288    0.18070174    0.32037633

     Total force =     1.274314     Total SCF correction =     0.000211


     Computing stress (Cartesian axis) and pressure

          total   stress  (Ry/bohr**3)                   (kbar)     P=      252.08
   0.00149940   0.00000000   0.00000000          220.57        0.00        0.00
   0.00000000   0.00104152   0.00000000            0.00      153.21        0.00
   0.00000000   0.00000000   0.00259996            0.00        0.00      382.47


     BFGS Geometry Optimization
     Energy error            =      0.0E+00
     Gradient error          =      3.2E-01
     Cell gradient error     =      2.6E-03


     number of scf cycles    =   1
     number of bfgs steps    =   0

     enthalpy new            =   -1987.6613712275 Ry

     new trust radius        =       0.5000000000 bohr
     new conv_thr            =       0.0000001000 Ry

     new unit-cell volume =   2185.55913 a.u.^3 (   323.86645 Ang^3 )
     density =      2.88542 g/cm^3

CELL_PARAMETERS (angstrom)
   4.909059005   0.000000000   0.000000000
   0.000000000  10.435694526   0.000000000
   0.000000000   0.000000000   6.321881480

ATOMIC_POSITIONS (angstrom)
Mg            0.0000000000        0.0000000000        0.0000000000
Mg            2.4545295025        5.2178472628        0.0000000000
Mg            0.0000000000        0.0000000000        3.1609407402
Mg            2.4545295025        5.2178472628        3.1609407402
Mg            0.0681722632        2.8965681665        4.7414111103
Mg            4.8408867417        7.5391263591        1.5804703701
Mg            2.5227017657        2.3212790963        1.5804703701
Mg            2.3863572392        8.1144154293        4.7414111103
Si            0.2887387572        4.2989005329        1.5804703701
Si            4.6203202478        6.1367939927        4.7414111103
Si            2.7432682596        0.9189467299        4.7414111103
Si            2.1657907453        9.5167477957        1.5804703701
O             1.1410213084        0.9037837074        4.7414111103
O             3.7680376966        9.5319108182        1.5804703701
O             3.5955508108        4.3140635554        1.5804703701
O             1.3135081941        6.1216309702        4.7414111103
O             1.3743822595        0.5574286575        1.5804703701
O             3.5346767455        9.8782658680        4.7414111103
O             3.8289117619        4.6604186052        4.7414111103
O             1.0801472430        5.7752759203        1.5804703701
O             1.1500795933        3.5247334915        2.9625568886
O             3.7589794116        6.9109610341        3.3593245919
O             3.6046090958        1.6931137713        3.3593245919
O             1.3044499092        8.7425807542        2.9625568886
O             3.7589794116        6.9109610341        6.1234976288
O             1.1500795933        3.5247334915        0.1983838517
O             1.3044499092        8.7425807542        0.1983838517
O             3.6046090958        1.6931137713        6.1234976288



     Writing output data file ./out/oliv.save/
     NEW-OLD atomic charge density approx. for the potential

     Check: negative core charge=   -0.000011
     extrapolated charge  211.89081, renormalised to  192.00000
     Generating pointlists ...

     total cpu time spent up to now is      912.4 secs

     Self-consistent Calculation

     iteration #  1     ecut=    60.00 Ry     beta= 0.30
     Davidson diagonalization with overlap
     c_bands:  3 eigenvalues not converged
     c_bands:  3 eigenvalues not converged
     ethr =  1.00E-06,  avg # of iterations = 36.6

     total cpu time spent up to now is     1222.7 secs

     total energy              =   -1979.46289901 Ry
     estimated scf accuracy    <       8.05230041 Ry

     total magnetization       =     0.00 Bohr mag/cell
     absolute magnetization    =     0.00 Bohr mag/cell

     iteration #  2     ecut=    60.00 Ry     beta= 0.30
     Davidson diagonalization with overlap
     ethr =  4.19E-03,  avg # of iterations =  6.0

     total cpu time spent up to now is     1274.2 secs

     total energy              =   -1988.18024768 Ry
     estimated scf accuracy    <       3.95707711 Ry

     total magnetization       =     0.00 Bohr mag/cell
     absolute magnetization    =     0.03 Bohr mag/cell

     iteration #  3     ecut=    60.00 Ry     beta= 0.30
     Davidson diagonalization with overlap
     ethr =  2.06E-03,  avg # of iterations =  2.5

     total cpu time spent up to now is     1303.1 secs

     total energy              =   -1987.13653851 Ry
     estimated scf accuracy    <       1.99569356 Ry

     total magnetization       =    -0.00 Bohr mag/cell
     absolute magnetization    =     0.03 Bohr mag/cell

     iteration #  4     ecut=    60.00 Ry     beta= 0.30
     Davidson diagonalization with overlap
     ethr =  1.04E-03,  avg # of iterations =  4.0

     total cpu time spent up to now is     1345.4 secs

     total energy              =   -1987.90593323 Ry
     estimated scf accuracy    <       0.38953649 Ry

     total magnetization       =    -0.00 Bohr mag/cell
     absolute magnetization    =     0.03 Bohr mag/cell

     iteration #  5     ecut=    60.00 Ry     beta= 0.30
     Davidson diagonalization with overlap
     ethr =  2.03E-04,  avg # of iterations =  9.0

     total cpu time spent up to now is     1385.4 secs

     total energy              =   -1988.00664231 Ry
     estimated scf accuracy    <       0.07431544 Ry

     total magnetization       =     0.00 Bohr mag/cell
     absolute magnetization    =     0.02 Bohr mag/cell

     iteration #  6     ecut=    60.00 Ry     beta= 0.30
     Davidson diagonalization with overlap
     c_bands:  1 eigenvalues not converged
     c_bands:  1 eigenvalues not converged
     ethr =  3.87E-05,  avg # of iterations = 13.1

     total cpu time spent up to now is     1436.1 secs

     total energy              =   -1988.00860348 Ry
     estimated scf accuracy    <       0.16053263 Ry

     total magnetization       =    -0.00 Bohr mag/cell
     absolute magnetization    =     0.03 Bohr mag/cell

     iteration #  7     ecut=    60.00 Ry     beta= 0.30
     Davidson diagonalization with overlap
     ethr =  3.87E-05,  avg # of iterations =  3.5

     total cpu time spent up to now is     1466.0 secs

     total energy              =   -1988.01869950 Ry
     estimated scf accuracy    <       0.01700333 Ry

     total magnetization       =    -0.00 Bohr mag/cell
     absolute magnetization    =     0.03 Bohr mag/cell

     iteration #  8     ecut=    60.00 Ry     beta= 0.30
     Davidson diagonalization with overlap
     c_bands:  1 eigenvalues not converged
     c_bands:  1 eigenvalues not converged
     ethr =  8.86E-06,  avg # of iterations = 10.2

     total cpu time spent up to now is     1517.7 secs

     total energy              =   -1988.02995852 Ry
     estimated scf accuracy    <       0.00347292 Ry

     total magnetization       =    -0.00 Bohr mag/cell
     absolute magnetization    =     0.02 Bohr mag/cell

     iteration #  9     ecut=    60.00 Ry     beta= 0.30
     Davidson diagonalization with overlap
     c_bands:  1 eigenvalues not converged
     c_bands:  2 eigenvalues not converged
     ethr =  1.81E-06,  avg # of iterations = 16.0

     total cpu time spent up to now is     1558.8 secs

     total energy              =   -1988.02958910 Ry
     estimated scf accuracy    <       0.00128704 Ry

     total magnetization       =    -0.00 Bohr mag/cell
     absolute magnetization    =     0.01 Bohr mag/cell

     iteration # 10     ecut=    60.00 Ry     beta= 0.30
     Davidson diagonalization with overlap
     ethr =  6.70E-07,  avg # of iterations =  6.4

     total cpu time spent up to now is     1603.6 secs

     total energy              =   -1988.03014168 Ry
     estimated scf accuracy    <       0.00020632 Ry

     total magnetization       =     0.00 Bohr mag/cell
     absolute magnetization    =     0.01 Bohr mag/cell

     iteration # 11     ecut=    60.00 Ry     beta= 0.30
     Davidson diagonalization with overlap
     ethr =  1.07E-07,  avg # of iterations =  9.5

     total cpu time spent up to now is     1647.0 secs

     total energy              =   -1988.03021836 Ry
     estimated scf accuracy    <       0.00005684 Ry

     total magnetization       =    -0.00 Bohr mag/cell
     absolute magnetization    =     0.00 Bohr mag/cell

     iteration # 12     ecut=    60.00 Ry     beta= 0.30
     Davidson diagonalization with overlap
     ethr =  2.96E-08,  avg # of iterations =  6.5

     total cpu time spent up to now is     1686.8 secs

     total energy              =   -1988.03023914 Ry
     estimated scf accuracy    <       0.00000048 Ry

     total magnetization       =     0.00 Bohr mag/cell
     absolute magnetization    =     0.00 Bohr mag/cell

     iteration # 13     ecut=    60.00 Ry     beta= 0.30
     Davidson diagonalization with overlap
     ethr =  2.49E-10,  avg # of iterations = 12.6

     total cpu time spent up to now is     1761.3 secs

     total energy              =   -1988.03024161 Ry
     estimated scf accuracy    <       0.00000050 Ry

     total magnetization       =    -0.00 Bohr mag/cell
     absolute magnetization    =     0.00 Bohr mag/cell

     iteration # 14     ecut=    60.00 Ry     beta= 0.30
     Davidson diagonalization with overlap
     ethr =  2.49E-10,  avg # of iterations =  1.8

     total cpu time spent up to now is     1790.5 secs

     total energy              =   -1988.03024145 Ry
     estimated scf accuracy    <       0.00000037 Ry

     total magnetization       =     0.00 Bohr mag/cell
     absolute magnetization    =     0.00 Bohr mag/cell

     iteration # 15     ecut=    60.00 Ry     beta= 0.30
     Davidson diagonalization with overlap
     ethr =  1.94E-10,  avg # of iterations =  2.0

     Magnetic moment per site:
     atom:    1    charge:    8.1072    magn:   -0.0000    constr:    0.0000
     atom:    2    charge:    8.1072    magn:   -0.0000    constr:    0.0000
     atom:    3    charge:    8.1072    magn:   -0.0000    constr:    0.0000
     atom:    4    charge:    8.1072    magn:   -0.0000    constr:    0.0000
     atom:    5    charge:    8.0784    magn:   -0.0000    constr:    0.0000
     atom:    6    charge:    8.0784    magn:   -0.0000    constr:    0.0000
     atom:    7    charge:    8.0784    magn:   -0.0000    constr:    0.0000
     atom:    8    charge:    8.0784    magn:   -0.0000    constr:    0.0000
     atom:    9    charge:    0.3639    magn:   -0.0000    constr:    0.0000
     atom:   10    charge:    0.3639    magn:   -0.0000    constr:    0.0000
     atom:   11    charge:    0.3639    magn:   -0.0000    constr:    0.0000
     atom:   12    charge:    0.3639    magn:   -0.0000    constr:    0.0000
     atom:   13    charge:    4.0506    magn:    0.0000    constr:    0.0000
     atom:   14    charge:    4.0506    magn:    0.0000    constr:    0.0000
     atom:   15    charge:    4.0506    magn:    0.0000    constr:    0.0000
     atom:   16    charge:    4.0506    magn:    0.0000    constr:    0.0000
     atom:   17    charge:    4.0338    magn:    0.0000    constr:    0.0000
     atom:   18    charge:    4.0338    magn:    0.0000    constr:    0.0000
     atom:   19    charge:    4.0338    magn:    0.0000    constr:    0.0000
     atom:   20    charge:    4.0338    magn:    0.0000    constr:    0.0000
     atom:   21    charge:    3.9822    magn:    0.0000    constr:    0.0000
     atom:   22    charge:    3.9822    magn:    0.0000    constr:    0.0000
     atom:   23    charge:    3.9822    magn:    0.0000    constr:    0.0000
     atom:   24    charge:    3.9822    magn:    0.0000    constr:    0.0000
     atom:   25    charge:    3.9822    magn:    0.0000    constr:    0.0000
     atom:   26    charge:    3.9822    magn:    0.0000    constr:    0.0000
     atom:   27    charge:    3.9822    magn:    0.0000    constr:    0.0000
     atom:   28    charge:    3.9822    magn:    0.0000    constr:    0.0000

     total cpu time spent up to now is     1822.9 secs

     End of self-consistent calculation

 ------ SPIN UP ------------


          k = 0.0000 0.0000 0.0000 ( 15339 PWs)   bands (ev):

   -67.9331 -67.9331 -67.9331 -67.9331 -67.9246 -67.9245 -67.9234 -67.9233
   -34.7006 -34.6996 -34.6978 -34.6976 -34.6964 -34.6963 -34.6854 -34.6823
   -34.6823 -34.6821 -34.6771 -34.6770 -34.6767 -34.6747 -34.6739 -34.6738
   -34.6500 -34.6477 -34.6475 -34.6473 -34.6467 -34.6456 -34.6438 -34.6422
   -13.5162 -13.4009 -13.1480 -13.1101 -12.2098 -12.1749 -12.1455 -12.1391
   -11.5066 -11.2497 -11.2295 -11.1389 -11.1388 -11.0766 -10.9398 -10.8817
    -1.2803  -1.1969  -0.8376  -0.7586  -0.0990   0.0290   0.4771   0.4847
     0.5074   0.8107   1.1754   1.1779   1.2584   1.7660   1.8703   1.9331
     2.0254   2.0912   2.2951   2.3417   2.4301   2.5994   2.6799   2.7010
     2.7214   2.8291   2.9088   2.9559   3.0990   3.3513   3.4049   3.4152
     3.4989   3.5514   3.6833   3.7483   3.8002   3.8403   3.9890   4.0439
     4.2462   4.3082   4.3289   4.3420   4.4484   4.5076   4.5388   4.9111
     8.6498  10.6001  10.8645  12.4816  12.5970  12.6610  12.6797  12.8586
    12.9435  13.1748  13.3763  13.6111  13.7159  14.1713  14.2938  14.5404
    14.5737  15.2191  15.3507

          k = 0.0000 0.0000-0.3760 ( 15392 PWs)   bands (ev):

   -67.9331 -67.9331 -67.9331 -67.9331 -67.9240 -67.9240 -67.9240 -67.9240
   -34.6971 -34.6971 -34.6971 -34.6971 -34.6893 -34.6893 -34.6883 -34.6883
   -34.6836 -34.6836 -34.6814 -34.6814 -34.6754 -34.6754 -34.6743 -34.6743
   -34.6491 -34.6491 -34.6473 -34.6473 -34.6454 -34.6454 -34.6438 -34.6438
   -13.3193 -13.3193 -13.2689 -13.2689 -12.1843 -12.1843 -12.1689 -12.1689
   -11.3678 -11.3678 -11.2232 -11.2232 -11.0183 -11.0183 -10.9707 -10.9707
    -1.0024  -1.0024  -0.9943  -0.9943   0.3477   0.3477   0.3838   0.3838
     0.9420   0.9420   1.2233   1.2233   1.4900   1.4900   1.8229   1.8229
     2.0981   2.0981   2.3396   2.3396   2.4244   2.4244   2.6479   2.6479
     2.6952   2.6952   2.7068   2.7068   3.0174   3.0174   3.2807   3.2807
     3.4213   3.4213   3.6017   3.6017   3.9441   3.9441   3.9575   3.9575
     4.1824   4.1824   4.2295   4.2295   4.5027   4.5027   4.5795   4.5795
    10.4448  10.4448  11.3772  11.3772  12.1434  12.1434  13.1378  13.1378
    13.6392  13.6392  14.2448  14.2448  14.4797  14.4797  14.5023  14.5023
    14.6282  14.6282  15.2545

          k =-0.4842 0.0000 0.0000 ( 15374 PWs)   bands (ev):

   -67.9331 -67.9331 -67.9331 -67.9331 -67.9246 -67.9246 -67.9234 -67.9234
   -34.7003 -34.7003 -34.6972 -34.6972 -34.6965 -34.6965 -34.6842 -34.6842
   -34.6822 -34.6822 -34.6771 -34.6771 -34.6755 -34.6755 -34.6739 -34.6739
   -34.6487 -34.6487 -34.6475 -34.6475 -34.6465 -34.6465 -34.6427 -34.6427
   -13.1721 -13.1721 -12.9734 -12.9734 -12.4960 -12.4960 -12.3465 -12.3465
   -11.3924 -11.3924 -11.2305 -11.2305 -11.0066 -11.0066 -11.0018 -11.0018
    -0.9725  -0.9725  -0.9395  -0.9395   0.5628   0.5628   0.6250   0.6250
     0.9406   0.9406   1.0057   1.0057   1.2403   1.2403   1.5514   1.5514
     1.7897   1.7897   1.9384   1.9384   2.1231   2.1231   2.4659   2.4659
     2.8537   2.8537   2.9694   2.9694   3.4162   3.4162   3.4971   3.4971
     3.6993   3.6993   3.7943   3.7943   4.0681   4.0681   4.1614   4.1614
     4.3287   4.3287   4.3711   4.3711   4.5384   4.5384   4.7116   4.7116
    10.8928  10.8928  11.7474  11.7474  11.9423  11.9423  12.3381  12.3381
    12.7587  12.7587  13.4630  13.4630  13.6755  13.6755  14.1546  14.1547
    15.0228  15.0230  15.5966

          k =-0.4842 0.0000-0.3760 ( 15436 PWs)   bands (ev):

   -67.9331 -67.9331 -67.9331 -67.9331 -67.9240 -67.9240 -67.9240 -67.9240
   -34.6972 -34.6972 -34.6972 -34.6972 -34.6889 -34.6889 -34.6884 -34.6884
   -34.6833 -34.6833 -34.6818 -34.6818 -34.6755 -34.6755 -34.6742 -34.6742
   -34.6490 -34.6490 -34.6474 -34.6474 -34.6456 -34.6456 -34.6436 -34.6436
   -13.0639 -13.0639 -13.0595 -13.0595 -12.4653 -12.4653 -12.4043 -12.4043
   -11.3410 -11.3410 -11.2451 -11.2451 -11.0390 -11.0390 -11.0235 -11.0235
    -0.8892  -0.8892  -0.8578  -0.8578   0.7669   0.7669   0.9569   0.9569
     1.0824   1.0824   1.1015   1.1015   1.1485   1.1485   1.4030   1.4030
     1.8236   1.8236   1.8568   1.8568   2.1809   2.1809   2.2193   2.2193
     2.5574   2.5574   2.7572   2.7572   3.3100   3.3100   3.4308   3.4308
     3.5634   3.5634   3.8824   3.8824   3.8964   3.8964   4.1511   4.1511
     4.3529   4.3529   4.3704   4.3704   4.5592   4.5592   4.5769   4.5769
    11.7193  11.7193  11.7506  11.7506  12.4378  12.4378  12.6287  12.6287
    13.3482  13.3482  13.3876  13.3876  13.8069  13.8069  13.8848  13.8848
    14.6971  14.8518  14.8519

 ------ SPIN DOWN ----------


          k = 0.0000 0.0000 0.0000 ( 15339 PWs)   bands (ev):

   -67.9331 -67.9331 -67.9331 -67.9331 -67.9246 -67.9245 -67.9234 -67.9233
   -34.7006 -34.6995 -34.6977 -34.6975 -34.6964 -34.6962 -34.6854 -34.6823
   -34.6822 -34.6821 -34.6771 -34.6770 -34.6766 -34.6747 -34.6739 -34.6738
   -34.6499 -34.6477 -34.6474 -34.6473 -34.6466 -34.6456 -34.6438 -34.6422
   -13.5161 -13.4008 -13.1480 -13.1100 -12.2097 -12.1749 -12.1454 -12.1391
   -11.5065 -11.2496 -11.2294 -11.1388 -11.1387 -11.0765 -10.9397 -10.8816
    -1.2803  -1.1969  -0.8376  -0.7585  -0.0990   0.0290   0.4771   0.4847
     0.5074   0.8107   1.1755   1.1779   1.2584   1.7660   1.8703   1.9331
     2.0254   2.0912   2.2951   2.3417   2.4301   2.5995   2.6799   2.7010
     2.7214   2.8291   2.9088   2.9559   3.0991   3.3513   3.4049   3.4152
     3.4989   3.5514   3.6833   3.7484   3.8003   3.8403   3.9891   4.0439
     4.2463   4.3082   4.3289   4.3420   4.4484   4.5077   4.5388   4.9112
     8.6498  10.6001  10.8645  12.4816  12.5969  12.6610  12.6797  12.8586
    12.9434  13.1748  13.3763  13.6111  13.7159  14.1712  14.2937  14.5404
    14.5737  15.1190  15.2193

          k = 0.0000 0.0000-0.3760 ( 15392 PWs)   bands (ev):

   -67.9331 -67.9331 -67.9331 -67.9331 -67.9240 -67.9240 -67.9240 -67.9240
   -34.6971 -34.6971 -34.6971 -34.6971 -34.6893 -34.6893 -34.6883 -34.6883
   -34.6835 -34.6835 -34.6814 -34.6814 -34.6754 -34.6754 -34.6743 -34.6743
   -34.6491 -34.6491 -34.6473 -34.6473 -34.6454 -34.6454 -34.6438 -34.6438
   -13.3193 -13.3193 -13.2688 -13.2688 -12.1842 -12.1842 -12.1688 -12.1688
   -11.3678 -11.3678 -11.2231 -11.2231 -11.0182 -11.0182 -10.9706 -10.9706
    -1.0024  -1.0024  -0.9943  -0.9943   0.3478   0.3478   0.3838   0.3838
     0.9420   0.9420   1.2233   1.2233   1.4900   1.4900   1.8229   1.8229
     2.0981   2.0981   2.3396   2.3396   2.4245   2.4245   2.6479   2.6479
     2.6952   2.6952   2.7068   2.7068   3.0175   3.0175   3.2807   3.2807
     3.4214   3.4214   3.6017   3.6017   3.9441   3.9441   3.9576   3.9576
     4.1825   4.1825   4.2296   4.2296   4.5027   4.5027   4.5796   4.5796
    10.4448  10.4448  11.3772  11.3772  12.1433  12.1433  13.1377  13.1377
    13.6392  13.6392  14.2449  14.2449  14.4797  14.4797  14.5023  14.5024
    14.6282  14.6282  15.2546

          k =-0.4842 0.0000 0.0000 ( 15374 PWs)   bands (ev):

   -67.9331 -67.9331 -67.9331 -67.9331 -67.9246 -67.9246 -67.9234 -67.9234
   -34.7003 -34.7003 -34.6972 -34.6972 -34.6965 -34.6965 -34.6842 -34.6842
   -34.6821 -34.6821 -34.6771 -34.6771 -34.6754 -34.6754 -34.6739 -34.6739
   -34.6487 -34.6487 -34.6475 -34.6475 -34.6464 -34.6464 -34.6427 -34.6427
   -13.1720 -13.1720 -12.9734 -12.9734 -12.4960 -12.4960 -12.3464 -12.3464
   -11.3923 -11.3923 -11.2305 -11.2305 -11.0066 -11.0066 -11.0017 -11.0017
    -0.9725  -0.9725  -0.9395  -0.9395   0.5629   0.5629   0.6250   0.6250
     0.9406   0.9406   1.0057   1.0057   1.2403   1.2403   1.5514   1.5514
     1.7897   1.7897   1.9384   1.9384   2.1231   2.1231   2.4659   2.4659
     2.8538   2.8538   2.9694   2.9694   3.4162   3.4162   3.4971   3.4971
     3.6994   3.6994   3.7944   3.7944   4.0681   4.0681   4.1614   4.1614
     4.3288   4.3288   4.3711   4.3711   4.5385   4.5385   4.7116   4.7116
    10.8928  10.8928  11.7473  11.7473  11.9423  11.9423  12.3381  12.3381
    12.7587  12.7587  13.4630  13.4630  13.6755  13.6755  14.1546  14.1547
    15.0228  15.0229  15.5967

          k =-0.4842 0.0000-0.3760 ( 15436 PWs)   bands (ev):

   -67.9331 -67.9331 -67.9331 -67.9331 -67.9240 -67.9240 -67.9240 -67.9240
   -34.6972 -34.6972 -34.6972 -34.6972 -34.6889 -34.6889 -34.6884 -34.6884
   -34.6833 -34.6833 -34.6818 -34.6818 -34.6755 -34.6755 -34.6742 -34.6742
   -34.6490 -34.6490 -34.6473 -34.6473 -34.6456 -34.6456 -34.6436 -34.6436
   -13.0639 -13.0639 -13.0595 -13.0595 -12.4652 -12.4652 -12.4042 -12.4042
   -11.3410 -11.3410 -11.2450 -11.2450 -11.0390 -11.0390 -11.0234 -11.0234
    -0.8892  -0.8892  -0.8578  -0.8578   0.7669   0.7669   0.9569   0.9569
     1.0824   1.0824   1.1015   1.1015   1.1486   1.1486   1.4030   1.4030
     1.8237   1.8237   1.8568   1.8568   2.1809   2.1809   2.2193   2.2193
     2.5574   2.5574   2.7573   2.7573   3.3100   3.3100   3.4309   3.4309
     3.5635   3.5635   3.8825   3.8825   3.8964   3.8964   4.1511   4.1511
     4.3529   4.3529   4.3705   4.3705   4.5592   4.5592   4.5769   4.5769
    11.7192  11.7192  11.7506  11.7506  12.4378  12.4378  12.6287  12.6287
    13.3482  13.3482  13.3876  13.3876  13.8068  13.8069  13.8847  13.8848
    14.6970  14.8518  14.8518

     the Fermi energy is     7.9869 ev

!    total energy              =   -1988.03024154 Ry

     total all-electron energy =     -7937.126094 Ry
     estimated scf accuracy    <       0.00000001 Ry
     smearing contrib. (-TS)   =      -0.00000000 Ry
     internal energy E=F+TS    =   -1988.03024154 Ry

     The total energy is F=E-TS. E is the sum of the following terms:
     one-electron contribution =    -968.14423012 Ry
     hartree contribution      =     553.22529664 Ry
     xc contribution           =    -286.70212996 Ry
     ewald contribution        =    -871.22865285 Ry
     one-center paw contrib.   =    -415.18052525 Ry

     total magnetization       =    -0.00 Bohr mag/cell
     absolute magnetization    =     0.00 Bohr mag/cell

     convergence has been achieved in  15 iterations

     Forces acting on atoms (cartesian axes, Ry/au):

     atom    1 type  1   force =     0.00000000    0.00000000    0.00000000
     atom    2 type  1   force =     0.00000000    0.00000000    0.00000000
     atom    3 type  1   force =     0.00000000    0.00000000    0.00000000
     atom    4 type  1   force =     0.00000000   -0.00000000   -0.00000000
     atom    5 type  1   force =    -0.00807459   -0.00349436    0.00000000
     atom    6 type  1   force =     0.00807459    0.00349436    0.00000000
     atom    7 type  1   force =    -0.00807459    0.00349436    0.00000000
     atom    8 type  1   force =     0.00807459   -0.00349436    0.00000000
     atom    9 type  2   force =     0.14962991   -0.06500043    0.00000000
     atom   10 type  2   force =    -0.14962991    0.06500043    0.00000000
     atom   11 type  2   force =     0.14962991    0.06500043    0.00000000
     atom   12 type  2   force =    -0.14962991   -0.06500043    0.00000000
     atom   13 type  3   force =    -0.01803999    0.00850014    0.00000000
     atom   14 type  3   force =     0.01803999   -0.00850014    0.00000000
     atom   15 type  3   force =    -0.01803999   -0.00850014    0.00000000
     atom   16 type  3   force =     0.01803999    0.00850014    0.00000000
     atom   17 type  3   force =     0.01082405   -0.00115574    0.00000000
     atom   18 type  3   force =    -0.01082405    0.00115574    0.00000000
     atom   19 type  3   force =     0.01082405    0.00115574   -0.00000000
     atom   20 type  3   force =    -0.01082405   -0.00115574    0.00000000
     atom   21 type  3   force =    -0.04942095    0.03421156   -0.05964197
     atom   22 type  3   force =     0.04942095   -0.03421156    0.05964197
     atom   23 type  3   force =    -0.04942095   -0.03421156    0.05964197
     atom   24 type  3   force =     0.04942095    0.03421156   -0.05964197
     atom   25 type  3   force =     0.04942095   -0.03421156   -0.05964197
     atom   26 type  3   force =    -0.04942095    0.03421156    0.05964197
     atom   27 type  3   force =     0.04942095    0.03421156    0.05964197
     atom   28 type  3   force =    -0.04942095   -0.03421156   -0.05964197

     Total force =     0.407666     Total SCF correction =     0.000195


     Computing stress (Cartesian axis) and pressure

          total   stress  (Ry/bohr**3)                   (kbar)     P=     -112.49
  -0.00060669   0.00000000   0.00000000          -89.25        0.00        0.00
   0.00000000  -0.00050221   0.00000000            0.00      -73.88        0.00
   0.00000000   0.00000000  -0.00118524            0.00        0.00     -174.35

     Energy error            =      3.7E-01
     Gradient error          =      1.5E-01
     Cell gradient error     =      1.2E-03


     number of scf cycles    =   2
     number of bfgs steps    =   1

     enthalpy old            =   -1987.6613712275 Ry
     enthalpy new            =   -1988.0302415379 Ry

     CASE: enthalpy_new < enthalpy_old

     new trust radius        =       0.1794560699 bohr
     new conv_thr            =       0.0000001000 Ry

     new unit-cell volume =   2103.27367 a.u.^3 (   311.67300 Ang^3 )
     density =      2.99831 g/cm^3

CELL_PARAMETERS (angstrom)
   4.859549202   0.000000000   0.000000000
   0.000000000  10.343639403   0.000000000
   0.000000000   0.000000000   6.200544487

ATOMIC_POSITIONS (angstrom)
Mg            0.0000000000        0.0000000000        0.0000000000
Mg            2.4297746011        5.1718197017        0.0000000000
Mg            0.0000000000        0.0000000000        3.1002722433
Mg            2.4297746011        5.1718197017        3.1002722433
Mg            0.0637300168        2.8700801840        4.6504083650
Mg            4.7958191854        7.4735592195        1.5501361217
Mg            2.4935046179        2.3017395177        1.5501361217
Mg            2.3660445843        8.0418998857        4.6504083650
Si            0.3465952864        4.2412318567        1.5501361217
Si            4.5129539158        6.1024075468        4.6504083650
Si            2.7763698875        0.9305878451        4.6504083650
Si            2.0831793147        9.4130515584        1.5501361217
O             1.1171621840        0.9002696160        4.6504083650
O             3.7423870182        9.4433697875        1.5501361217
O             3.5469367851        4.2715500857        1.5501361217
O             1.3126124171        6.0720893177        4.6504083650
O             1.3648784553        0.5553067961        1.5501361217
O             3.4946707469        9.7883326073        4.6504083650
O             3.7946530564        4.6165129056        4.6504083650
O             1.0648961458        5.7271264979        1.5501361217
O             1.1212015676        3.5023384301        2.8895162578
O             3.7383476347        6.8413009734        3.3110282288
O             3.5509761687        1.6694812716        3.3110282288
O             1.3085730336        8.6741581318        2.8895162578
O             3.7383476347        6.8413009734        5.9897885011
O             1.1212015676        3.5023384301        0.2107559855
O             1.3085730336        8.6741581318        0.2107559855
O             3.5509761687        1.6694812716        5.9897885011



     Writing output data file ./out/oliv.save/
     NEW-OLD atomic charge density approx. for the potential

     Check: negative core charge=   -0.000010
     extrapolated charge  184.48884, renormalised to  192.00000
     Generating pointlists ...

     total cpu time spent up to now is     1855.0 secs

     Self-consistent Calculation

     iteration #  1     ecut=    60.00 Ry     beta= 0.30
     Davidson diagonalization with overlap
     c_bands:  5 eigenvalues not converged
     c_bands:  4 eigenvalues not converged
     c_bands:  5 eigenvalues not converged
     ethr =  1.00E-06,  avg # of iterations = 27.0

     total cpu time spent up to now is     2073.7 secs

     total energy              =   -1987.13978764 Ry
     estimated scf accuracy    <       0.89954014 Ry

     total magnetization       =     0.00 Bohr mag/cell
     absolute magnetization    =     0.00 Bohr mag/cell

     iteration #  2     ecut=    60.00 Ry     beta= 0.30
     Davidson diagonalization with overlap
     ethr =  4.69E-04,  avg # of iterations =  5.8

     total cpu time spent up to now is     2129.4 secs

     total energy              =   -1988.17845957 Ry
     estimated scf accuracy    <       0.46138419 Ry

     total magnetization       =    -0.00 Bohr mag/cell
     absolute magnetization    =     0.03 Bohr mag/cell

     iteration #  3     ecut=    60.00 Ry     beta= 0.30
     Davidson diagonalization with overlap
     ethr =  2.40E-04,  avg # of iterations =  2.0

     total cpu time spent up to now is     2158.6 secs

     total energy              =   -1988.08153124 Ry
     estimated scf accuracy    <       0.22671577 Ry

     total magnetization       =     0.00 Bohr mag/cell
     absolute magnetization    =     0.02 Bohr mag/cell

     iteration #  4     ecut=    60.00 Ry     beta= 0.30
     Davidson diagonalization with overlap
     ethr =  1.18E-04,  avg # of iterations =  4.5

     total cpu time spent up to now is     2194.1 secs

     total energy              =   -1988.14791062 Ry
     estimated scf accuracy    <       0.00352584 Ry

     total magnetization       =     0.00 Bohr mag/cell
     absolute magnetization    =     0.05 Bohr mag/cell

     iteration #  5     ecut=    60.00 Ry     beta= 0.30
     Davidson diagonalization with overlap
     c_bands:  2 eigenvalues not converged
     c_bands:  3 eigenvalues not converged
     c_bands:  1 eigenvalues not converged
     c_bands:  1 eigenvalues not converged
     ethr =  1.84E-06,  avg # of iterations = 19.0

     total cpu time spent up to now is     2296.7 secs

     total energy              =   -1988.16515137 Ry
     estimated scf accuracy    <       0.00637180 Ry

     total magnetization       =    -0.00 Bohr mag/cell
     absolute magnetization    =     0.00 Bohr mag/cell

     iteration #  6     ecut=    60.00 Ry     beta= 0.30
     Davidson diagonalization with overlap
     c_bands:  2 eigenvalues not converged
     c_bands:  1 eigenvalues not converged
     ethr =  1.84E-06,  avg # of iterations = 10.1

     total cpu time spent up to now is     2326.2 secs

     total energy              =   -1988.16286955 Ry
     estimated scf accuracy    <       0.00759148 Ry

     total magnetization       =    -0.00 Bohr mag/cell
     absolute magnetization    =     0.00 Bohr mag/cell

     iteration #  7     ecut=    60.00 Ry     beta= 0.30
     Davidson diagonalization with overlap
     ethr =  1.84E-06,  avg # of iterations =  8.5

     total cpu time spent up to now is     2397.8 secs

     total energy              =   -1988.15724706 Ry
     estimated scf accuracy    <       0.04873294 Ry

     total magnetization       =     0.00 Bohr mag/cell
     absolute magnetization    =     0.01 Bohr mag/cell

     iteration #  8     ecut=    60.00 Ry     beta= 0.30
     Davidson diagonalization with overlap
     ethr =  1.84E-06,  avg # of iterations =  5.4

     total cpu time spent up to now is     2452.0 secs

     total energy              =   -1988.16165108 Ry
     estimated scf accuracy    <       0.00355676 Ry

     total magnetization       =     0.00 Bohr mag/cell
     absolute magnetization    =     0.00 Bohr mag/cell

     iteration #  9     ecut=    60.00 Ry     beta= 0.30
     Davidson diagonalization with overlap
     ethr =  1.84E-06,  avg # of iterations =  1.4

     total cpu time spent up to now is     2476.7 secs

     total energy              =   -1988.16140242 Ry
     estimated scf accuracy    <       0.00129752 Ry

     total magnetization       =     0.00 Bohr mag/cell
     absolute magnetization    =     0.00 Bohr mag/cell

     iteration # 10     ecut=    60.00 Ry     beta= 0.30
     Davidson diagonalization with overlap
     ethr =  6.76E-07,  avg # of iterations =  3.6

     total cpu time spent up to now is     2508.6 secs

     total energy              =   -1988.16161454 Ry
     estimated scf accuracy    <       0.00015027 Ry

     total magnetization       =    -0.00 Bohr mag/cell
     absolute magnetization    =     0.00 Bohr mag/cell

     iteration # 11     ecut=    60.00 Ry     beta= 0.30
     Davidson diagonalization with overlap
     ethr =  7.83E-08,  avg # of iterations =  5.2

     total cpu time spent up to now is     2551.6 secs

     total energy              =   -1988.16171128 Ry
     estimated scf accuracy    <       0.00000606 Ry

     total magnetization       =    -0.00 Bohr mag/cell
     absolute magnetization    =     0.00 Bohr mag/cell

     iteration # 12     ecut=    60.00 Ry     beta= 0.30
     Davidson diagonalization with overlap
     ethr =  3.16E-09,  avg # of iterations =  8.4

     total cpu time spent up to now is     2619.4 secs

     total energy              =   -1988.16170540 Ry
     estimated scf accuracy    <       0.00006278 Ry

     total magnetization       =    -0.00 Bohr mag/cell
     absolute magnetization    =     0.00 Bohr mag/cell

     iteration # 13     ecut=    60.00 Ry     beta= 0.30
     Davidson diagonalization with overlap
     ethr =  3.16E-09,  avg # of iterations =  5.0

     total cpu time spent up to now is     2670.3 secs

     total energy              =   -1988.16171427 Ry
     estimated scf accuracy    <       0.00000354 Ry

     total magnetization       =    -0.00 Bohr mag/cell
     absolute magnetization    =     0.00 Bohr mag/cell

     iteration # 14     ecut=    60.00 Ry     beta= 0.30
     Davidson diagonalization with overlap
     ethr =  1.84E-09,  avg # of iterations =  1.2

     total cpu time spent up to now is     2695.9 secs

     total energy              =   -1988.16171282 Ry
     estimated scf accuracy    <       0.00000369 Ry

     total magnetization       =     0.00 Bohr mag/cell
     absolute magnetization    =     0.00 Bohr mag/cell

     iteration # 15     ecut=    60.00 Ry     beta= 0.30
     Davidson diagonalization with overlap
     ethr =  1.84E-09,  avg # of iterations =  2.0

     total cpu time spent up to now is     2727.8 secs

     total energy              =   -1988.16171304 Ry
     estimated scf accuracy    <       0.00000060 Ry

     total magnetization       =     0.00 Bohr mag/cell
     absolute magnetization    =     0.00 Bohr mag/cell

     iteration # 16     ecut=    60.00 Ry     beta= 0.30
     Davidson diagonalization with overlap
     ethr =  3.12E-10,  avg # of iterations =  5.1

     total cpu time spent up to now is     2771.3 secs

     total energy              =   -1988.16171342 Ry
     estimated scf accuracy    <       0.00000032 Ry

     total magnetization       =    -0.00 Bohr mag/cell
     absolute magnetization    =     0.00 Bohr mag/cell

     iteration # 17     ecut=    60.00 Ry     beta= 0.30
     Davidson diagonalization with overlap
     ethr =  1.69E-10,  avg # of iterations =  1.6

     total cpu time spent up to now is     2795.7 secs

     total energy              =   -1988.16171338 Ry
     estimated scf accuracy    <       0.00000014 Ry

     total magnetization       =    -0.00 Bohr mag/cell
     absolute magnetization    =     0.00 Bohr mag/cell

     iteration # 18     ecut=    60.00 Ry     beta= 0.30
     Davidson diagonalization with overlap
     ethr =  7.52E-11,  avg # of iterations =  3.4

     Magnetic moment per site:
     atom:    1    charge:    8.1217    magn:   -0.0000    constr:    0.0000
     atom:    2    charge:    8.1217    magn:   -0.0000    constr:    0.0000
     atom:    3    charge:    8.1217    magn:   -0.0000    constr:    0.0000
     atom:    4    charge:    8.1217    magn:   -0.0000    constr:    0.0000
     atom:    5    charge:    8.0879    magn:    0.0000    constr:    0.0000
     atom:    6    charge:    8.0879    magn:    0.0000    constr:    0.0000
     atom:    7    charge:    8.0879    magn:    0.0000    constr:    0.0000
     atom:    8    charge:    8.0879    magn:    0.0000    constr:    0.0000
     atom:    9    charge:    0.3733    magn:   -0.0000    constr:    0.0000
     atom:   10    charge:    0.3733    magn:   -0.0000    constr:    0.0000
     atom:   11    charge:    0.3733    magn:   -0.0000    constr:    0.0000
     atom:   12    charge:    0.3733    magn:   -0.0000    constr:    0.0000
     atom:   13    charge:    4.0377    magn:    0.0000    constr:    0.0000
     atom:   14    charge:    4.0377    magn:    0.0000    constr:    0.0000
     atom:   15    charge:    4.0377    magn:    0.0000    constr:    0.0000
     atom:   16    charge:    4.0377    magn:    0.0000    constr:    0.0000
     atom:   17    charge:    4.0526    magn:   -0.0000    constr:    0.0000
     atom:   18    charge:    4.0526    magn:   -0.0000    constr:    0.0000
     atom:   19    charge:    4.0526    magn:   -0.0000    constr:    0.0000
     atom:   20    charge:    4.0526    magn:   -0.0000    constr:    0.0000
     atom:   21    charge:    4.0144    magn:    0.0000    constr:    0.0000
     atom:   22    charge:    4.0144    magn:    0.0000    constr:    0.0000
     atom:   23    charge:    4.0144    magn:    0.0000    constr:    0.0000
     atom:   24    charge:    4.0144    magn:    0.0000    constr:    0.0000
     atom:   25    charge:    4.0144    magn:    0.0000    constr:    0.0000
     atom:   26    charge:    4.0144    magn:    0.0000    constr:    0.0000
     atom:   27    charge:    4.0144    magn:    0.0000    constr:    0.0000
     atom:   28    charge:    4.0144    magn:    0.0000    constr:    0.0000

     total cpu time spent up to now is     2828.1 secs

     End of self-consistent calculation

 ------ SPIN UP ------------


          k = 0.0000 0.0000 0.0000 ( 15339 PWs)   bands (ev):

   -67.4737 -67.4737 -67.4736 -67.4736 -67.3839 -67.3838 -67.3822 -67.3822
   -34.2441 -34.2439 -34.2424 -34.2423 -34.2170 -34.2169 -34.2164 -34.2162
   -34.1937 -34.1934 -34.1911 -34.1910 -34.1619 -34.1615 -34.1353 -34.1352
   -34.1271 -34.1268 -34.1237 -34.1235 -34.1207 -34.1205 -34.1195 -34.1195
   -13.1983 -13.0264 -12.6988 -12.6341 -11.7424 -11.7355 -11.6057 -11.5775
   -11.4359 -11.2378 -11.1587 -11.1550 -11.1144 -11.0889 -10.9621 -10.9000
    -0.8698  -0.7893  -0.3926  -0.2947   0.0538   0.1727   0.7287   0.7308
     0.8411   1.1853   1.2924   1.4340   1.6103   1.9450   2.0655   2.2683
     2.3900   2.6321   2.6914   2.8247   2.8301   2.8616   2.9165   2.9370
     3.0523   3.1869   3.3334   3.3498   3.3610   3.6553   3.6882   3.7546
     3.8463   3.9382   3.9691   3.9728   4.0095   4.1065   4.2696   4.3380
     4.4331   4.5305   4.5888   4.6181   4.6250   4.7282   4.7714   5.1729
     9.4070  11.3655  11.6414  13.1038  13.3352  13.4738  13.5297  13.6568
    13.7474  13.7998  14.1172  14.3342  14.3632  14.8449  15.0851  15.2145
    15.2873  15.8533  15.9367

          k = 0.0000 0.0000-0.3834 ( 15392 PWs)   bands (ev):

   -67.4736 -67.4736 -67.4736 -67.4736 -67.3830 -67.3830 -67.3830 -67.3830
   -34.2432 -34.2432 -34.2431 -34.2431 -34.2166 -34.2166 -34.2166 -34.2166
   -34.1924 -34.1924 -34.1922 -34.1922 -34.1479 -34.1479 -34.1478 -34.1478
   -34.1240 -34.1240 -34.1239 -34.1239 -34.1221 -34.1221 -34.1221 -34.1221
   -12.9401 -12.9401 -12.8554 -12.8554 -11.6730 -11.6730 -11.6606 -11.6606
   -11.3511 -11.3511 -11.1766 -11.1766 -11.0337 -11.0337 -10.9670 -10.9670
    -0.5529  -0.5529  -0.5486  -0.5486   0.5368   0.5368   0.5694   0.5694
     1.2052   1.2052   1.5357   1.5357   1.8766   1.8766   2.1298   2.1298
     2.3723   2.3723   2.5803   2.5803   2.8338   2.8338   2.9685   2.9685
     3.0141   3.0141   3.1454   3.1454   3.3725   3.3725   3.4986   3.4986
     3.8200   3.8200   3.9278   3.9278   4.0940   4.0940   4.1959   4.1959
     4.4156   4.4156   4.4568   4.4568   4.7492   4.7492   4.8425   4.8425
    11.1929  11.1929  12.1865  12.1865  12.8666  12.8666  13.9067  13.9067
    14.3408  14.3408  15.0621  15.0621  15.2298  15.2298  15.2893  15.2893
    15.3432  15.3432  16.0165

          k =-0.4892 0.0000 0.0000 ( 15374 PWs)   bands (ev):

   -67.4737 -67.4737 -67.4736 -67.4736 -67.3839 -67.3839 -67.3822 -67.3822
   -34.2433 -34.2433 -34.2432 -34.2432 -34.2168 -34.2168 -34.2164 -34.2164
   -34.1924 -34.1924 -34.1922 -34.1922 -34.1617 -34.1617 -34.1353 -34.1353
   -34.1270 -34.1270 -34.1236 -34.1236 -34.1206 -34.1206 -34.1195 -34.1195
   -12.7877 -12.7877 -12.4883 -12.4883 -12.0745 -12.0745 -11.8432 -11.8432
   -11.3600 -11.3600 -11.1776 -11.1776 -11.0236 -11.0236 -11.0190 -11.0190
    -0.6121  -0.6121  -0.5665  -0.5665   0.8886   0.8886   0.9680   0.9680
     1.3739   1.3739   1.4288   1.4288   1.6433   1.6433   1.9163   1.9163
     2.0659   2.0659   2.1385   2.1385   2.2571   2.2571   2.6500   2.6500
     3.1375   3.1375   3.3196   3.3196   3.6013   3.6013   3.6566   3.6566
     4.1329   4.1329   4.2486   4.2486   4.3326   4.3326   4.3500   4.3500
     4.6119   4.6119   4.6819   4.6819   4.7718   4.7718   4.9623   4.9623
    11.6910  11.6910  12.5204  12.5204  12.7013  12.7013  13.1307  13.1307
    13.4344  13.4344  14.1213  14.1213  14.3717  14.3717  14.9951  14.9951
    15.8078  15.8078  16.2404

          k =-0.4892 0.0000-0.3834 ( 15436 PWs)   bands (ev):

   -67.4737 -67.4737 -67.4737 -67.4737 -67.3831 -67.3831 -67.3830 -67.3830
   -34.2433 -34.2433 -34.2432 -34.2432 -34.2166 -34.2166 -34.2166 -34.2166
   -34.1923 -34.1923 -34.1922 -34.1922 -34.1479 -34.1479 -34.1478 -34.1478
   -34.1240 -34.1240 -34.1238 -34.1238 -34.1223 -34.1223 -34.1220 -34.1220
   -12.6534 -12.6534 -12.6049 -12.6049 -11.9753 -11.9753 -11.9665 -11.9665
   -11.3210 -11.3210 -11.2105 -11.2105 -11.0471 -11.0471 -11.0216 -11.0216
    -0.5050  -0.5050  -0.4332  -0.4332   1.1305   1.1305   1.3692   1.3692
     1.4171   1.4171   1.4768   1.4768   1.5585   1.5585   1.8667   1.8667
     1.9975   1.9975   2.0028   2.0028   2.4499   2.4499   2.5099   2.5099
     2.6808   2.6808   3.0144   3.0144   3.5203   3.5203   3.6081   3.6081
     3.8909   3.8909   4.2334   4.2334   4.2886   4.2886   4.4454   4.4454
     4.6238   4.6238   4.6302   4.6302   4.7965   4.7965   4.8340   4.8340
    12.4946  12.4946  12.5981  12.5981  13.2057  13.2057  13.3627  13.3627
    14.0618  14.0618  14.1053  14.1053  14.5693  14.5693  14.6818  14.6818
    15.4795  15.4795  15.5343

 ------ SPIN DOWN ----------


          k = 0.0000 0.0000 0.0000 ( 15339 PWs)   bands (ev):

   -67.4737 -67.4736 -67.4736 -67.4736 -67.3838 -67.3838 -67.3822 -67.3822
   -34.2441 -34.2439 -34.2424 -34.2423 -34.2170 -34.2169 -34.2164 -34.2162
   -34.1937 -34.1934 -34.1911 -34.1910 -34.1619 -34.1615 -34.1353 -34.1352
   -34.1271 -34.1268 -34.1237 -34.1235 -34.1207 -34.1205 -34.1195 -34.1194
   -13.1983 -13.0264 -12.6988 -12.6341 -11.7424 -11.7355 -11.6057 -11.5775
   -11.4359 -11.2378 -11.1587 -11.1550 -11.1144 -11.0889 -10.9621 -10.9000
    -0.8698  -0.7893  -0.3926  -0.2947   0.0538   0.1727   0.7287   0.7308
     0.8411   1.1853   1.2924   1.4340   1.6103   1.9450   2.0655   2.2683
     2.3900   2.6321   2.6913   2.8247   2.8301   2.8616   2.9165   2.9370
     3.0523   3.1869   3.3334   3.3498   3.3610   3.6553   3.6882   3.7546
     3.8463   3.9382   3.9691   3.9728   4.0095   4.1065   4.2696   4.3381
     4.4331   4.5305   4.5888   4.6181   4.6250   4.7282   4.7714   5.1729
     9.4070  11.3655  11.6414  13.1038  13.3352  13.4738  13.5297  13.6568
    13.7475  13.7998  14.1172  14.3342  14.3632  14.8449  15.0851  15.2145
    15.2873  15.8529  15.9365

          k = 0.0000 0.0000-0.3834 ( 15392 PWs)   bands (ev):

   -67.4736 -67.4736 -67.4736 -67.4736 -67.3830 -67.3830 -67.3830 -67.3830
   -34.2432 -34.2432 -34.2431 -34.2431 -34.2166 -34.2166 -34.2165 -34.2165
   -34.1924 -34.1924 -34.1922 -34.1922 -34.1479 -34.1479 -34.1478 -34.1478
   -34.1239 -34.1239 -34.1239 -34.1239 -34.1221 -34.1221 -34.1221 -34.1221
   -12.9401 -12.9401 -12.8554 -12.8554 -11.6730 -11.6730 -11.6606 -11.6606
   -11.3511 -11.3511 -11.1766 -11.1766 -11.0337 -11.0337 -10.9670 -10.9670
    -0.5529  -0.5529  -0.5486  -0.5486   0.5368   0.5368   0.5694   0.5694
     1.2052   1.2052   1.5357   1.5357   1.8766   1.8766   2.1298   2.1298
     2.3723   2.3723   2.5803   2.5803   2.8338   2.8338   2.9685   2.9685
     3.0141   3.0141   3.1454   3.1454   3.3725   3.3725   3.4986   3.4986
     3.8200   3.8200   3.9278   3.9278   4.0940   4.0940   4.1960   4.1960
     4.4155   4.4155   4.4568   4.4568   4.7492   4.7492   4.8425   4.8425
    11.1929  11.1929  12.1865  12.1865  12.8666  12.8666  13.9067  13.9067
    14.3408  14.3408  15.0621  15.0621  15.2298  15.2298  15.2893  15.2893
    15.3432  15.3432  16.0165

          k =-0.4892 0.0000 0.0000 ( 15374 PWs)   bands (ev):

   -67.4736 -67.4736 -67.4736 -67.4736 -67.3838 -67.3838 -67.3822 -67.3822
   -34.2433 -34.2433 -34.2432 -34.2432 -34.2168 -34.2168 -34.2164 -34.2164
   -34.1924 -34.1924 -34.1922 -34.1922 -34.1617 -34.1617 -34.1353 -34.1353
   -34.1270 -34.1270 -34.1236 -34.1236 -34.1206 -34.1206 -34.1195 -34.1195
   -12.7877 -12.7877 -12.4883 -12.4883 -12.0745 -12.0745 -11.8432 -11.8432
   -11.3600 -11.3600 -11.1776 -11.1776 -11.0236 -11.0236 -11.0190 -11.0190
    -0.6121  -0.6121  -0.5665  -0.5665   0.8886   0.8886   0.9680   0.9680
     1.3739   1.3739   1.4288   1.4288   1.6433   1.6433   1.9163   1.9163
     2.0659   2.0659   2.1385   2.1385   2.2571   2.2571   2.6500   2.6500
     3.1374   3.1374   3.3196   3.3196   3.6013   3.6013   3.6566   3.6566
     4.1329   4.1329   4.2486   4.2486   4.3326   4.3326   4.3500   4.3500
     4.6119   4.6119   4.6819   4.6819   4.7718   4.7718   4.9623   4.9623
    11.6910  11.6910  12.5204  12.5204  12.7013  12.7013  13.1307  13.1307
    13.4344  13.4344  14.1213  14.1213  14.3717  14.3717  14.9951  14.9951
    15.8078  15.8078  16.2398

          k =-0.4892 0.0000-0.3834 ( 15436 PWs)   bands (ev):

   -67.4737 -67.4737 -67.4736 -67.4736 -67.3830 -67.3830 -67.3830 -67.3830
   -34.2433 -34.2433 -34.2432 -34.2432 -34.2166 -34.2166 -34.2166 -34.2166
   -34.1923 -34.1923 -34.1922 -34.1922 -34.1478 -34.1478 -34.1478 -34.1478
   -34.1240 -34.1240 -34.1238 -34.1238 -34.1223 -34.1223 -34.1220 -34.1220
   -12.6534 -12.6534 -12.6049 -12.6049 -11.9753 -11.9753 -11.9665 -11.9665
   -11.3210 -11.3210 -11.2105 -11.2105 -11.0471 -11.0471 -11.0216 -11.0216
    -0.5050  -0.5050  -0.4332  -0.4332   1.1305   1.1305   1.3692   1.3692
     1.4171   1.4171   1.4768   1.4768   1.5585   1.5585   1.8667   1.8667
     1.9975   1.9975   2.0028   2.0028   2.4499   2.4499   2.5099   2.5099
     2.6808   2.6808   3.0144   3.0144   3.5204   3.5204   3.6081   3.6081
     3.8909   3.8909   4.2334   4.2334   4.2887   4.2887   4.4454   4.4454
     4.6238   4.6238   4.6302   4.6302   4.7965   4.7965   4.8340   4.8340
    12.4946  12.4946  12.5981  12.5981  13.2057  13.2057  13.3627  13.3627
    14.0618  14.0618  14.1053  14.1053  14.5693  14.5693  14.6818  14.6818
    15.4795  15.4795  15.5343

     the Fermi energy is     5.9802 ev

!    total energy              =   -1988.16171344 Ry

     total all-electron energy =     -7937.257566 Ry
     estimated scf accuracy    <       0.00000002 Ry
     smearing contrib. (-TS)   =      -0.00000000 Ry
     internal energy E=F+TS    =   -1988.16171344 Ry

     The total energy is F=E-TS. E is the sum of the following terms:
     one-electron contribution =    -953.46783815 Ry
     hartree contribution      =     548.83750100 Ry
     xc contribution           =    -287.38101133 Ry
     ewald contribution        =    -880.96410549 Ry
     one-center paw contrib.   =    -415.18625947 Ry

     total magnetization       =     0.00 Bohr mag/cell
     absolute magnetization    =     0.00 Bohr mag/cell

     convergence has been achieved in  18 iterations

     Forces acting on atoms (cartesian axes, Ry/au):

     atom    1 type  1   force =     0.00000000    0.00000000    0.00000000
     atom    2 type  1   force =     0.00000000   -0.00000000    0.00000000
     atom    3 type  1   force =     0.00000000    0.00000000    0.00000000
     atom    4 type  1   force =    -0.00000000    0.00000000    0.00000000
     atom    5 type  1   force =    -0.00209679   -0.00318106    0.00000000
     atom    6 type  1   force =     0.00209679    0.00318106    0.00000000
     atom    7 type  1   force =    -0.00209679    0.00318106    0.00000000
     atom    8 type  1   force =     0.00209679   -0.00318106    0.00000000
     atom    9 type  2   force =     0.02260543   -0.04849470    0.00000000
     atom   10 type  2   force =    -0.02260543    0.04849470    0.00000000
     atom   11 type  2   force =     0.02260543    0.04849470    0.00000000
     atom   12 type  2   force =    -0.02260543   -0.04849470    0.00000000
     atom   13 type  3   force =     0.03626960    0.01227020    0.00000000
     atom   14 type  3   force =    -0.03626960   -0.01227020    0.00000000
     atom   15 type  3   force =     0.03626960   -0.01227020    0.00000000
     atom   16 type  3   force =    -0.03626960    0.01227020   -0.00000000
     atom   17 type  3   force =    -0.00422762    0.01918599    0.00000000
     atom   18 type  3   force =     0.00422762   -0.01918599   -0.00000000
     atom   19 type  3   force =    -0.00422762   -0.01918599    0.00000000
     atom   20 type  3   force =     0.00422762    0.01918599    0.00000000
     atom   21 type  3   force =    -0.02941458    0.01251548   -0.02877102
     atom   22 type  3   force =     0.02941458   -0.01251548    0.02877102
     atom   23 type  3   force =    -0.02941458   -0.01251548    0.02877102
     atom   24 type  3   force =     0.02941458    0.01251548   -0.02877102
     atom   25 type  3   force =     0.02941458   -0.01251548   -0.02877102
     atom   26 type  3   force =    -0.02941458    0.01251548    0.02877102
     atom   27 type  3   force =     0.02941458    0.01251548    0.02877102
     atom   28 type  3   force =    -0.02941458   -0.01251548   -0.02877102

     Total force =     0.183614     Total SCF correction =     0.000084


     Computing stress (Cartesian axis) and pressure

          total   stress  (Ry/bohr**3)                   (kbar)     P=      -65.44
  -0.00053022   0.00000000   0.00000000          -78.00        0.00        0.00
   0.00000000  -0.00015035   0.00000000            0.00      -22.12        0.00
   0.00000000   0.00000000  -0.00065390            0.00        0.00      -96.19

     Energy error            =      1.3E-01
     Gradient error          =      4.8E-02
     Cell gradient error     =      6.5E-04


     number of scf cycles    =   3
     number of bfgs steps    =   2

     enthalpy old            =   -1988.0302415379 Ry
     enthalpy new            =   -1988.1617134374 Ry

     CASE: enthalpy_new < enthalpy_old

     new trust radius        =       0.2371409245 bohr
     new conv_thr            =       0.0000001000 Ry

     new unit-cell volume =   1992.24357 a.u.^3 (   295.22004 Ang^3 )
     density =      3.16541 g/cm^3

CELL_PARAMETERS (angstrom)
   4.754503521   0.000000000   0.000000000
   0.000000000  10.279850621   0.000000000
   0.000000000   0.000000000   6.040235284

ATOMIC_POSITIONS (angstrom)
Mg            0.0000000000        0.0000000000        0.0000000000
Mg            2.3772517604        5.1399253105        0.0000000000
Mg            0.0000000000        0.0000000000        3.0201176421
Mg            2.3772517604        5.1399253105        3.0201176421
Mg            0.0599027354        2.8498951042        4.5301764631
Mg            4.6946007855        7.4299555168        1.5100588210
Mg            2.4371544958        2.2900302063        1.5100588210
Mg            2.3173490251        7.9898204147        4.5301764631
Si            0.3625343500        4.1762241448        1.5100588210
Si            4.3919691709        6.1036264761        4.5301764631
Si            2.7397861104        0.9637011656        4.5301764631
Si            2.0147174105        9.3161494553        1.5100588210
O             1.1202779401        0.9066745175        4.5301764631
O             3.6342255808        9.3731761034        1.5100588210
O             3.4975297005        4.2332507930        1.5100588210
O             1.2569738203        6.0465998280        4.5301764631
O             1.3318594659        0.5716366616        1.5100588210
O             3.4226440550        9.7082139593        4.5301764631
O             3.7091112263        4.5682886489        4.5301764631
O             1.0453922945        5.7115619721        1.5100588210
O             1.0722590461        3.4882256111        2.7950841054
O             3.6822444748        6.7916250098        3.2451511788
O             3.4495108065        1.6516996993        3.2451511788
O             1.3049927144        8.6281509216        2.7950841054
O             3.6822444748        6.7916250098        5.8152017475
O             1.0722590461        3.4882256111        0.2250335367
O             1.3049927144        8.6281509216        0.2250335367
O             3.4495108065        1.6516996993        5.8152017475



     Writing output data file ./out/oliv.save/
     NEW-OLD atomic charge density approx. for the potential

     Check: negative core charge=   -0.000009
     extrapolated charge  181.30015, renormalised to  192.00000
     Generating pointlists ...
     new r_m :   0.1773 (alat units)  1.5927 (a.u.) for type    1

     total cpu time spent up to now is     2862.3 secs

     Self-consistent Calculation

     iteration #  1     ecut=    60.00 Ry     beta= 0.30
     Davidson diagonalization with overlap
     c_bands:  3 eigenvalues not converged
     c_bands:  1 eigenvalues not converged
     c_bands:  1 eigenvalues not converged
     c_bands:  3 eigenvalues not converged
     c_bands:  1 eigenvalues not converged
     ethr =  1.00E-06,  avg # of iterations = 37.8

     total cpu time spent up to now is     3112.5 secs

     total energy              =   -1986.26681116 Ry
     estimated scf accuracy    <       1.67484375 Ry

     total magnetization       =     0.00 Bohr mag/cell
     absolute magnetization    =     0.00 Bohr mag/cell

     iteration #  2     ecut=    60.00 Ry     beta= 0.30
     Davidson diagonalization with overlap
     ethr =  8.72E-04,  avg # of iterations =  5.0

     total cpu time spent up to now is     3159.4 secs

     total energy              =   -1988.21408686 Ry
     estimated scf accuracy    <       0.69753780 Ry

     total magnetization       =     0.00 Bohr mag/cell
     absolute magnetization    =     0.04 Bohr mag/cell

     iteration #  3     ecut=    60.00 Ry     beta= 0.30
     Davidson diagonalization with overlap
     ethr =  3.63E-04,  avg # of iterations =  3.0

     total cpu time spent up to now is     3187.6 secs

     total energy              =   -1988.05853848 Ry
     estimated scf accuracy    <       0.36301861 Ry

     total magnetization       =     0.00 Bohr mag/cell
     absolute magnetization    =     0.02 Bohr mag/cell

     iteration #  4     ecut=    60.00 Ry     beta= 0.30
     Davidson diagonalization with overlap
     ethr =  1.89E-04,  avg # of iterations =  6.5

     total cpu time spent up to now is     3223.6 secs

     total energy              =   -1988.16730603 Ry
     estimated scf accuracy    <       0.00640638 Ry

     total magnetization       =    -0.00 Bohr mag/cell
     absolute magnetization    =     0.06 Bohr mag/cell

     iteration #  5     ecut=    60.00 Ry     beta= 0.30
     Davidson diagonalization with overlap
     c_bands:  1 eigenvalues not converged
     c_bands:  2 eigenvalues not converged
     c_bands:  2 eigenvalues not converged
     c_bands:  1 eigenvalues not converged
     c_bands:  2 eigenvalues not converged
     ethr =  3.34E-06,  avg # of iterations = 17.9

     total cpu time spent up to now is     3318.9 secs

     total energy              =   -1988.19591957 Ry
     estimated scf accuracy    <       0.01051697 Ry

     total magnetization       =    -0.00 Bohr mag/cell
     absolute magnetization    =     0.01 Bohr mag/cell

     iteration #  6     ecut=    60.00 Ry     beta= 0.30
     Davidson diagonalization with overlap
     c_bands:  1 eigenvalues not converged
     ethr =  3.34E-06,  avg # of iterations =  5.0

     total cpu time spent up to now is     3348.2 secs

     total energy              =   -1988.18852923 Ry
     estimated scf accuracy    <       0.01363771 Ry

     total magnetization       =     0.00 Bohr mag/cell
     absolute magnetization    =     0.01 Bohr mag/cell

     iteration #  7     ecut=    60.00 Ry     beta= 0.30
     Davidson diagonalization with overlap
     ethr =  3.34E-06,  avg # of iterations =  7.6

     total cpu time spent up to now is     3410.7 secs

     total energy              =   -1988.19053145 Ry
     estimated scf accuracy    <       0.04269007 Ry

     total magnetization       =     0.00 Bohr mag/cell
     absolute magnetization    =     0.00 Bohr mag/cell

     iteration #  8     ecut=    60.00 Ry     beta= 0.30
     Davidson diagonalization with overlap
     ethr =  3.34E-06,  avg # of iterations =  3.1

     total cpu time spent up to now is     3450.7 secs

     total energy              =   -1988.18722834 Ry
     estimated scf accuracy    <       0.01474082 Ry

     total magnetization       =    -0.00 Bohr mag/cell
     absolute magnetization    =     0.02 Bohr mag/cell

     iteration #  9     ecut=    60.00 Ry     beta= 0.30
     Davidson diagonalization with overlap
     ethr =  3.34E-06,  avg # of iterations =  5.5

     total cpu time spent up to now is     3489.8 secs

     total energy              =   -1988.18943645 Ry
     estimated scf accuracy    <       0.00114736 Ry

     total magnetization       =    -0.00 Bohr mag/cell
     absolute magnetization    =     0.03 Bohr mag/cell

     iteration # 10     ecut=    60.00 Ry     beta= 0.30
     Davidson diagonalization with overlap
     ethr =  5.98E-07,  avg # of iterations =  4.8

     total cpu time spent up to now is     3527.8 secs

     total energy              =   -1988.18988208 Ry
     estimated scf accuracy    <       0.00024079 Ry

     total magnetization       =     0.00 Bohr mag/cell
     absolute magnetization    =     0.00 Bohr mag/cell

     iteration # 11     ecut=    60.00 Ry     beta= 0.30
     Davidson diagonalization with overlap
     ethr =  1.25E-07,  avg # of iterations =  3.6

     total cpu time spent up to now is     3559.5 secs

     total energy              =   -1988.18986198 Ry
     estimated scf accuracy    <       0.00014761 Ry

     total magnetization       =     0.00 Bohr mag/cell
     absolute magnetization    =     0.00 Bohr mag/cell

     iteration # 12     ecut=    60.00 Ry     beta= 0.30
     Davidson diagonalization with overlap
     ethr =  7.69E-08,  avg # of iterations =  2.0

     total cpu time spent up to now is     3588.6 secs

     total energy              =   -1988.18986299 Ry
     estimated scf accuracy    <       0.00002628 Ry

     total magnetization       =    -0.00 Bohr mag/cell
     absolute magnetization    =     0.00 Bohr mag/cell

     iteration # 13     ecut=    60.00 Ry     beta= 0.30
     Davidson diagonalization with overlap
     ethr =  1.37E-08,  avg # of iterations =  7.0

     total cpu time spent up to now is     3644.1 secs

     total energy              =   -1988.18988953 Ry
     estimated scf accuracy    <       0.00001420 Ry

     total magnetization       =     0.00 Bohr mag/cell
     absolute magnetization    =     0.00 Bohr mag/cell

     iteration # 14     ecut=    60.00 Ry     beta= 0.30
     Davidson diagonalization with overlap
     ethr =  7.40E-09,  avg # of iterations =  1.6

     total cpu time spent up to now is     3669.9 secs

     total energy              =   -1988.18988714 Ry
     estimated scf accuracy    <       0.00001353 Ry

     total magnetization       =    -0.00 Bohr mag/cell
     absolute magnetization    =     0.00 Bohr mag/cell

     iteration # 15     ecut=    60.00 Ry     beta= 0.30
     Davidson diagonalization with overlap
     ethr =  7.05E-09,  avg # of iterations =  1.1

     total cpu time spent up to now is     3694.6 secs

     total energy              =   -1988.18988632 Ry
     estimated scf accuracy    <       0.00000705 Ry

     total magnetization       =    -0.00 Bohr mag/cell
     absolute magnetization    =     0.00 Bohr mag/cell

     iteration # 16     ecut=    60.00 Ry     beta= 0.30
     Davidson diagonalization with overlap
     ethr =  3.67E-09,  avg # of iterations =  2.0

     total cpu time spent up to now is     3722.5 secs

     total energy              =   -1988.18988619 Ry
     estimated scf accuracy    <       0.00000330 Ry

     total magnetization       =    -0.00 Bohr mag/cell
     absolute magnetization    =     0.00 Bohr mag/cell

     iteration # 17     ecut=    60.00 Ry     beta= 0.30
     Davidson diagonalization with overlap
     ethr =  1.72E-09,  avg # of iterations =  2.0

     total cpu time spent up to now is     3751.6 secs

     total energy              =   -1988.18988582 Ry
     estimated scf accuracy    <       0.00000161 Ry

     total magnetization       =    -0.00 Bohr mag/cell
     absolute magnetization    =     0.00 Bohr mag/cell

     iteration # 18     ecut=    60.00 Ry     beta= 0.30
     Davidson diagonalization with overlap
     ethr =  8.40E-10,  avg # of iterations =  2.0

     total cpu time spent up to now is     3780.1 secs

     total energy              =   -1988.18988590 Ry
     estimated scf accuracy    <       0.00000032 Ry

     total magnetization       =     0.00 Bohr mag/cell
     absolute magnetization    =     0.00 Bohr mag/cell

     iteration # 19     ecut=    60.00 Ry     beta= 0.30
     Davidson diagonalization with overlap
     ethr =  1.66E-10,  avg # of iterations =  6.1

     total cpu time spent up to now is     3821.9 secs

     total energy              =   -1988.18988620 Ry
     estimated scf accuracy    <       0.00000016 Ry

     total magnetization       =     0.00 Bohr mag/cell
     absolute magnetization    =     0.00 Bohr mag/cell

     iteration # 20     ecut=    60.00 Ry     beta= 0.30
     Davidson diagonalization with overlap
     ethr =  8.54E-11,  avg # of iterations =  2.0

     Magnetic moment per site:
     atom:    1    charge:    8.1197    magn:    0.0000    constr:    0.0000
     atom:    2    charge:    8.1197    magn:    0.0000    constr:    0.0000
     atom:    3    charge:    8.1197    magn:    0.0000    constr:    0.0000
     atom:    4    charge:    8.1197    magn:    0.0000    constr:    0.0000
     atom:    5    charge:    8.0859    magn:    0.0000    constr:    0.0000
     atom:    6    charge:    8.0859    magn:    0.0000    constr:    0.0000
     atom:    7    charge:    8.0859    magn:    0.0000    constr:    0.0000
     atom:    8    charge:    8.0859    magn:    0.0000    constr:    0.0000
     atom:    9    charge:    0.4004    magn:    0.0000    constr:    0.0000
     atom:   10    charge:    0.4004    magn:    0.0000    constr:    0.0000
     atom:   11    charge:    0.4004    magn:    0.0000    constr:    0.0000
     atom:   12    charge:    0.4004    magn:    0.0000    constr:    0.0000
     atom:   13    charge:    4.0658    magn:   -0.0000    constr:    0.0000
     atom:   14    charge:    4.0658    magn:   -0.0000    constr:    0.0000
     atom:   15    charge:    4.0658    magn:   -0.0000    constr:    0.0000
     atom:   16    charge:    4.0658    magn:   -0.0000    constr:    0.0000
     atom:   17    charge:    4.0555    magn:   -0.0000    constr:    0.0000
     atom:   18    charge:    4.0555    magn:   -0.0000    constr:    0.0000
     atom:   19    charge:    4.0555    magn:   -0.0000    constr:    0.0000
     atom:   20    charge:    4.0555    magn:   -0.0000    constr:    0.0000
     atom:   21    charge:    4.0600    magn:   -0.0000    constr:    0.0000
     atom:   22    charge:    4.0600    magn:   -0.0000    constr:    0.0000
     atom:   23    charge:    4.0600    magn:   -0.0000    constr:    0.0000
     atom:   24    charge:    4.0600    magn:   -0.0000    constr:    0.0000
     atom:   25    charge:    4.0600    magn:   -0.0000    constr:    0.0000
     atom:   26    charge:    4.0600    magn:   -0.0000    constr:    0.0000
     atom:   27    charge:    4.0600    magn:   -0.0000    constr:    0.0000
     atom:   28    charge:    4.0600    magn:   -0.0000    constr:    0.0000

     total cpu time spent up to now is     3843.1 secs

     End of self-consistent calculation

 ------ SPIN UP ------------


          k = 0.0000 0.0000 0.0000 ( 15339 PWs)   bands (ev):

   -66.7801 -66.7801 -66.7800 -66.7800 -66.6691 -66.6691 -66.6667 -66.6667
   -33.5578 -33.5575 -33.5553 -33.5552 -33.5201 -33.5200 -33.5195 -33.5190
   -33.5058 -33.5053 -33.5019 -33.5019 -33.4533 -33.4528 -33.4262 -33.4257
   -33.4233 -33.4230 -33.4127 -33.4126 -33.4045 -33.4042 -33.3976 -33.3975
   -12.9710 -12.7459 -12.4876 -12.3373 -11.2424 -11.1836 -11.1075 -11.0767
   -11.0440 -11.0035 -10.9739 -10.8493 -10.8330 -10.7826 -10.7133 -10.7034
    -0.3771  -0.3042   0.1396   0.2368   0.3876   0.4856   1.0842   1.0925
     1.3083   1.5931   1.6697   1.6812   1.9990   2.3294   2.4712   2.5909
     2.8809   3.1193   3.1202   3.1578   3.2066   3.2089   3.3022   3.4227
     3.6174   3.6858   3.8012   3.9045   3.9736   4.0412   4.0955   4.1138
     4.1706   4.4280   4.4439   4.4611   4.5639   4.5982   4.7666   4.7672
     4.8179   4.9394   4.9398   5.1222   5.1381   5.1888   5.3349   5.6919
    10.4703  12.4724  12.7441  13.9403  14.3531  14.5425  14.5570  14.6647
    14.7903  15.0668  15.0868  15.3823  15.3994  15.8799  16.1782  16.2232
    16.2545  16.7399  16.8368

          k = 0.0000 0.0000-0.3935 ( 15392 PWs)   bands (ev):

   -66.7801 -66.7801 -66.7801 -66.7801 -66.6679 -66.6679 -66.6679 -66.6679
   -33.5565 -33.5565 -33.5564 -33.5564 -33.5196 -33.5196 -33.5196 -33.5196
   -33.5039 -33.5039 -33.5037 -33.5037 -33.4337 -33.4337 -33.4335 -33.4335
   -33.4239 -33.4239 -33.4238 -33.4238 -33.4011 -33.4011 -33.4009 -33.4009
   -12.6801 -12.6801 -12.5897 -12.5897 -11.1600 -11.1600 -11.1550 -11.1550
   -11.0987 -11.0987 -10.9349 -10.9349 -10.7371 -10.7371 -10.6997 -10.6997
    -0.0222  -0.0222  -0.0199  -0.0199   0.8975   0.8975   0.9695   0.9695
     1.5115   1.5115   1.9665   1.9665   2.1937   2.1937   2.5348   2.5348
     2.8420   2.8420   2.9798   2.9798   3.2519   3.2519   3.3617   3.3617
     3.4211   3.4211   3.5824   3.5824   3.9501   3.9501   3.9880   3.9880
     4.3295   4.3295   4.4019   4.4019   4.5157   4.5157   4.5937   4.5937
     4.8669   4.8669   4.8927   4.8927   5.1829   5.1829   5.3350   5.3350
    12.2544  12.2544  13.3794  13.3794  13.9152  13.9152  14.9987  14.9987
    15.3078  15.3078  16.1774  16.1775  16.1778  16.1778  16.2748  16.2748
    16.4799  16.4799  16.8953

          k =-0.5000 0.0000 0.0000 ( 15374 PWs)   bands (ev):

   -66.7801 -66.7801 -66.7801 -66.7801 -66.6691 -66.6691 -66.6667 -66.6667
   -33.5567 -33.5567 -33.5565 -33.5565 -33.5199 -33.5199 -33.5193 -33.5193
   -33.5038 -33.5038 -33.5036 -33.5036 -33.4530 -33.4530 -33.4261 -33.4261
   -33.4231 -33.4231 -33.4127 -33.4127 -33.4045 -33.4045 -33.3976 -33.3976
   -12.5263 -12.5263 -12.2367 -12.2367 -11.6058 -11.6058 -11.3863 -11.3863
   -10.9084 -10.9084 -10.9056 -10.9056 -10.9040 -10.9040 -10.7155 -10.7155
    -0.1499  -0.1499  -0.0690  -0.0690   1.2875   1.2875   1.3278   1.3278
     1.7350   1.7350   1.8898   1.8898   1.9938   1.9938   2.4005   2.4005
     2.4165   2.4165   2.6563   2.6563   2.6658   2.6658   3.0573   3.0573
     3.5624   3.5624   3.6818   3.6818   3.9249   3.9249   4.0857   4.0857
     4.6798   4.6798   4.7061   4.7061   4.8053   4.8053   4.8977   4.8977
     5.1242   5.1242   5.1874   5.1874   5.2293   5.2293   5.4654   5.4654
    12.7405  12.7405  13.4850  13.4850  13.9010  13.9010  14.2484  14.2484
    14.4706  14.4706  15.1855  15.1855  15.4405  15.4405  16.1073  16.1073
    16.9282  16.9561  16.9794

          k =-0.5000 0.0000-0.3935 ( 15436 PWs)   bands (ev):

   -66.7801 -66.7801 -66.7801 -66.7801 -66.6679 -66.6679 -66.6679 -66.6679
   -33.5567 -33.5567 -33.5566 -33.5566 -33.5196 -33.5196 -33.5196 -33.5196
   -33.5038 -33.5038 -33.5037 -33.5037 -33.4337 -33.4337 -33.4335 -33.4335
   -33.4241 -33.4241 -33.4238 -33.4238 -33.4013 -33.4013 -33.4010 -33.4010
   -12.3871 -12.3871 -12.3325 -12.3325 -11.5233 -11.5233 -11.5045 -11.5045
   -10.9719 -10.9719 -10.9612 -10.9612 -10.8107 -10.8107 -10.7315 -10.7315
     0.0047   0.0047   0.1147   0.1147   1.4765   1.4765   1.7190   1.7190
     1.8542   1.8542   1.9558   1.9558   2.0457   2.0457   2.3189   2.3189
     2.3208   2.3208   2.3535   2.3535   2.8267   2.8267   2.8490   2.8490
     3.0744   3.0744   3.4495   3.4495   4.0186   4.0186   4.0432   4.0432
     4.2921   4.2921   4.6918   4.6918   4.8067   4.8067   4.9591   4.9591
     5.0686   5.0686   5.0829   5.0829   5.3045   5.3045   5.3500   5.3500
    13.4985  13.4985  13.7332  13.7332  14.3477  14.3477  14.5120  14.5120
    15.0691  15.0691  15.1889  15.1889  15.7376  15.7376  15.7460  15.7460
    16.4619  16.5926  16.5926

 ------ SPIN DOWN ----------


          k = 0.0000 0.0000 0.0000 ( 15339 PWs)   bands (ev):

   -66.7801 -66.7801 -66.7800 -66.7800 -66.6691 -66.6691 -66.6667 -66.6667
   -33.5578 -33.5575 -33.5553 -33.5552 -33.5201 -33.5200 -33.5195 -33.5191
   -33.5058 -33.5053 -33.5019 -33.5019 -33.4533 -33.4528 -33.4262 -33.4257
   -33.4233 -33.4230 -33.4127 -33.4126 -33.4045 -33.4042 -33.3976 -33.3975
   -12.9710 -12.7459 -12.4876 -12.3373 -11.2425 -11.1837 -11.1076 -11.0768
   -11.0441 -11.0036 -10.9739 -10.8494 -10.8331 -10.7827 -10.7133 -10.7035
    -0.3771  -0.3042   0.1396   0.2368   0.3876   0.4856   1.0842   1.0925
     1.3083   1.5931   1.6697   1.6812   1.9990   2.3294   2.4712   2.5909
     2.8809   3.1193   3.1202   3.1577   3.2066   3.2089   3.3022   3.4226
     3.6174   3.6858   3.8012   3.9045   3.9736   4.0412   4.0954   4.1137
     4.1705   4.4279   4.4439   4.4611   4.5638   4.5982   4.7665   4.7672
     4.8179   4.9394   4.9398   5.1222   5.1380   5.1888   5.3348   5.6919
    10.4703  12.4724  12.7441  13.9403  14.3531  14.5425  14.5571  14.6647
    14.7903  15.0669  15.0868  15.3823  15.3994  15.8799  16.1782  16.2232
    16.2545  16.7399  16.8368

          k = 0.0000 0.0000-0.3935 ( 15392 PWs)   bands (ev):

   -66.7801 -66.7801 -66.7801 -66.7801 -66.6679 -66.6679 -66.6679 -66.6679
   -33.5565 -33.5565 -33.5564 -33.5564 -33.5196 -33.5196 -33.5196 -33.5196
   -33.5039 -33.5039 -33.5037 -33.5037 -33.4337 -33.4337 -33.4335 -33.4335
   -33.4239 -33.4239 -33.4238 -33.4238 -33.4011 -33.4011 -33.4010 -33.4010
   -12.6801 -12.6801 -12.5897 -12.5897 -11.1600 -11.1600 -11.1551 -11.1551
   -11.0987 -11.0987 -10.9349 -10.9349 -10.7372 -10.7372 -10.6997 -10.6997
    -0.0222  -0.0222  -0.0199  -0.0199   0.8975   0.8975   0.9695   0.9695
     1.5115   1.5115   1.9664   1.9664   2.1937   2.1937   2.5348   2.5348
     2.8419   2.8419   2.9798   2.9798   3.2519   3.2519   3.3617   3.3617
     3.4211   3.4211   3.5824   3.5824   3.9501   3.9501   3.9879   3.9879
     4.3295   4.3295   4.4018   4.4018   4.5156   4.5156   4.5936   4.5936
     4.8668   4.8668   4.8926   4.8926   5.1828   5.1828   5.3349   5.3349
    12.2544  12.2544  13.3794  13.3794  13.9152  13.9152  14.9987  14.9987
    15.3079  15.3079  16.1775  16.1775  16.1778  16.1778  16.2749  16.2749
    16.4799  16.4799  16.8953

          k =-0.5000 0.0000 0.0000 ( 15374 PWs)   bands (ev):

   -66.7801 -66.7801 -66.7801 -66.7801 -66.6691 -66.6691 -66.6667 -66.6667
   -33.5567 -33.5567 -33.5565 -33.5565 -33.5199 -33.5199 -33.5193 -33.5193
   -33.5039 -33.5039 -33.5036 -33.5036 -33.4530 -33.4530 -33.4261 -33.4261
   -33.4232 -33.4232 -33.4127 -33.4127 -33.4045 -33.4045 -33.3976 -33.3976
   -12.5264 -12.5264 -12.2367 -12.2367 -11.6058 -11.6058 -11.3863 -11.3863
   -10.9084 -10.9084 -10.9057 -10.9057 -10.9040 -10.9040 -10.7156 -10.7156
    -0.1499  -0.1499  -0.0690  -0.0690   1.2875   1.2875   1.3278   1.3278
     1.7349   1.7349   1.8897   1.8897   1.9938   1.9938   2.4005   2.4005
     2.4165   2.4165   2.6562   2.6562   2.6657   2.6657   3.0573   3.0573
     3.5624   3.5624   3.6818   3.6818   3.9248   3.9248   4.0857   4.0857
     4.6797   4.6797   4.7061   4.7061   4.8053   4.8053   4.8977   4.8977
     5.1242   5.1242   5.1874   5.1874   5.2293   5.2293   5.4653   5.4653
    12.7405  12.7405  13.4850  13.4850  13.9011  13.9011  14.2484  14.2484
    14.4706  14.4706  15.1855  15.1855  15.4406  15.4406  16.1073  16.1073
    16.9283  16.9535  16.9795

          k =-0.5000 0.0000-0.3935 ( 15436 PWs)   bands (ev):

   -66.7801 -66.7801 -66.7801 -66.7801 -66.6679 -66.6679 -66.6679 -66.6679
   -33.5567 -33.5567 -33.5566 -33.5566 -33.5196 -33.5196 -33.5196 -33.5196
   -33.5038 -33.5038 -33.5037 -33.5037 -33.4337 -33.4337 -33.4335 -33.4335
   -33.4241 -33.4241 -33.4238 -33.4238 -33.4013 -33.4013 -33.4010 -33.4010
   -12.3871 -12.3871 -12.3325 -12.3325 -11.5234 -11.5234 -11.5046 -11.5046
   -10.9720 -10.9720 -10.9613 -10.9613 -10.8107 -10.8107 -10.7316 -10.7316
     0.0047   0.0047   0.1147   0.1147   1.4765   1.4765   1.7189   1.7189
     1.8541   1.8541   1.9558   1.9558   2.0457   2.0457   2.3189   2.3189
     2.3208   2.3208   2.3535   2.3535   2.8267   2.8267   2.8490   2.8490
     3.0744   3.0744   3.4495   3.4495   4.0185   4.0185   4.0432   4.0432
     4.2921   4.2921   4.6918   4.6918   4.8066   4.8066   4.9591   4.9591
     5.0686   5.0686   5.0829   5.0829   5.3044   5.3044   5.3499   5.3499
    13.4985  13.4985  13.7332  13.7332  14.3477  14.3477  14.5120  14.5120
    15.0691  15.0691  15.1889  15.1889  15.7376  15.7376  15.7460  15.7460
    16.4620  16.5926  16.5927

     the Fermi energy is     6.7136 ev

!    total energy              =   -1988.18988613 Ry

     total all-electron energy =     -7937.285739 Ry
     estimated scf accuracy    <       0.00000009 Ry
     smearing contrib. (-TS)   =      -0.00000000 Ry
     internal energy E=F+TS    =   -1988.18988613 Ry

     The total energy is F=E-TS. E is the sum of the following terms:
     one-electron contribution =    -927.52260704 Ry
     hartree contribution      =     540.14804561 Ry
     xc contribution           =    -288.44120579 Ry
     ewald contribution        =    -897.15174940 Ry
     one-center paw contrib.   =    -415.22236951 Ry

     total magnetization       =    -0.00 Bohr mag/cell
     absolute magnetization    =     0.00 Bohr mag/cell

     convergence has been achieved in  20 iterations

     Forces acting on atoms (cartesian axes, Ry/au):

     atom    1 type  1   force =     0.00000000    0.00000000   -0.00000000
     atom    2 type  1   force =    -0.00000000   -0.00000000    0.00000000
     atom    3 type  1   force =     0.00000000    0.00000000    0.00000000
     atom    4 type  1   force =     0.00000000   -0.00000000    0.00000000
     atom    5 type  1   force =     0.00029437    0.00029138    0.00000000
     atom    6 type  1   force =    -0.00029437   -0.00029138    0.00000000
     atom    7 type  1   force =     0.00029437   -0.00029138   -0.00000000
     atom    8 type  1   force =    -0.00029437    0.00029138   -0.00000000
     atom    9 type  2   force =    -0.01640143    0.04206627    0.00000000
     atom   10 type  2   force =     0.01640143   -0.04206627    0.00000000
     atom   11 type  2   force =    -0.01640143   -0.04206627    0.00000000
     atom   12 type  2   force =     0.01640143    0.04206627   -0.00000000
     atom   13 type  3   force =    -0.01325957    0.01380694   -0.00000000
     atom   14 type  3   force =     0.01325957   -0.01380694   -0.00000000
     atom   15 type  3   force =    -0.01325957   -0.01380694    0.00000000
     atom   16 type  3   force =     0.01325957    0.01380694    0.00000000
     atom   17 type  3   force =    -0.00584173   -0.00351675   -0.00000000
     atom   18 type  3   force =     0.00584173    0.00351675   -0.00000000
     atom   19 type  3   force =    -0.00584173    0.00351675    0.00000000
     atom   20 type  3   force =     0.00584173   -0.00351675    0.00000000
     atom   21 type  3   force =     0.01126452   -0.02543183    0.03892022
     atom   22 type  3   force =    -0.01126452    0.02543183   -0.03892022
     atom   23 type  3   force =     0.01126452    0.02543183   -0.03892022
     atom   24 type  3   force =    -0.01126452   -0.02543183    0.03892022
     atom   25 type  3   force =    -0.01126452    0.02543183    0.03892022
     atom   26 type  3   force =     0.01126452   -0.02543183   -0.03892022
     atom   27 type  3   force =    -0.01126452   -0.02543183   -0.03892022
     atom   28 type  3   force =     0.01126452    0.02543183    0.03892022

     Total force =     0.167673     Total SCF correction =     0.000348


     Computing stress (Cartesian axis) and pressure

          total   stress  (Ry/bohr**3)                   (kbar)     P=       37.12
   0.00028710   0.00000000   0.00000000           42.23        0.00        0.00
   0.00000000   0.00012272   0.00000000            0.00       18.05        0.00
   0.00000000   0.00000000   0.00034724            0.00        0.00       51.08

     Energy error            =      2.8E-02
     Gradient error          =      4.2E-02
     Cell gradient error     =      3.5E-04


     number of scf cycles    =   4
     number of bfgs steps    =   3

     enthalpy old            =   -1988.1617134374 Ry
     enthalpy new            =   -1988.1898861329 Ry

     CASE: enthalpy_new < enthalpy_old

     new trust radius        =       0.0695735428 bohr
     new conv_thr            =       0.0000001000 Ry

     new unit-cell volume =   2026.10926 a.u.^3 (   300.23842 Ang^3 )
     density =      3.11250 g/cm^3

CELL_PARAMETERS (angstrom)
   4.787057109   0.000000000   0.000000000
   0.000000000  10.303200790   0.000000000
   0.000000000   0.000000000   6.087310982

ATOMIC_POSITIONS (angstrom)
Mg            0.0000000000        0.0000000000       -0.0000000000
Mg            2.3935285543        5.1516003949        0.0000000000
Mg            0.0000000000        0.0000000000        3.0436554910
Mg            2.3935285543        5.1516003949        3.0436554910
Mg            0.0607201024        2.8566733312        4.5654832365
Mg            4.7263370061        7.4465274587        1.5218277455
Mg            2.4542486567        2.2949270637        1.5218277455
Mg            2.3328084518        8.0082737261        4.5654832365
Si            0.3582835398        4.2031132173        1.5218277455
Si            4.4287735687        6.1000875725        4.5654832365
Si            2.7518120941        0.9484871776        4.5654832365
Si            2.0352450144        9.3547136123        1.5218277455
O             1.1205547494        0.9117009481        4.5654832365
O             3.6665023591        9.3914998418        1.5218277455
O             3.5140833037        4.2398994468        1.5218277455
O             1.2729738048        6.0633013430        4.5654832365
O             1.3396448474        0.5685493734        1.5218277455
O             3.4474122612        9.7346514165        4.5654832365
O             3.7331734016        4.5830510215        4.5654832365
O             1.0538837069        5.7201497684        1.5218277455
O             1.0855461472        3.4879007824        2.8303917072
O             3.7015109613        6.8153000075        3.2569192748
O             3.4790747015        1.6636996126        3.2569192748
O             1.3079824070        8.6395011773        2.8303917072
O             3.7015109613        6.8153000075        5.8740471983
O             1.0855461472        3.4879007824        0.2132637838
O             1.3079824070        8.6395011773        0.2132637838
O             3.4790747015        1.6636996126        5.8740471983



     Writing output data file ./out/oliv.save/
     NEW-OLD atomic charge density approx. for the potential

     Check: negative core charge=   -0.000009
     extrapolated charge  195.20905, renormalised to  192.00000
     Generating pointlists ...

     total cpu time spent up to now is     3871.3 secs

     Self-consistent Calculation

     iteration #  1     ecut=    60.00 Ry     beta= 0.30
     Davidson diagonalization with overlap
     c_bands:  1 eigenvalues not converged
     c_bands:  1 eigenvalues not converged
     ethr =  1.00E-06,  avg # of iterations = 17.9

     total cpu time spent up to now is     4026.7 secs

     total energy              =   -1988.01221236 Ry
     estimated scf accuracy    <       0.16429073 Ry

     total magnetization       =     0.00 Bohr mag/cell
     absolute magnetization    =     0.00 Bohr mag/cell

     iteration #  2     ecut=    60.00 Ry     beta= 0.30
     Davidson diagonalization with overlap
     ethr =  8.56E-05,  avg # of iterations =  6.0

     total cpu time spent up to now is     4088.4 secs

     total energy              =   -1988.20601919 Ry
     estimated scf accuracy    <       0.07419775 Ry

     total magnetization       =     0.00 Bohr mag/cell
     absolute magnetization    =     0.01 Bohr mag/cell

     iteration #  3     ecut=    60.00 Ry     beta= 0.30
     Davidson diagonalization with overlap
     ethr =  3.86E-05,  avg # of iterations =  2.8

     total cpu time spent up to now is     4121.9 secs

     total energy              =   -1988.18797001 Ry
     estimated scf accuracy    <       0.03921113 Ry

     total magnetization       =     0.00 Bohr mag/cell
     absolute magnetization    =     0.01 Bohr mag/cell

     iteration #  4     ecut=    60.00 Ry     beta= 0.30
     Davidson diagonalization with overlap
     ethr =  2.04E-05,  avg # of iterations =  5.4

     total cpu time spent up to now is     4161.9 secs

     total energy              =   -1988.20214100 Ry
     estimated scf accuracy    <       0.00315385 Ry

     total magnetization       =    -0.00 Bohr mag/cell
     absolute magnetization    =     0.02 Bohr mag/cell

     iteration #  5     ecut=    60.00 Ry     beta= 0.30
     Davidson diagonalization with overlap
     c_bands:  1 eigenvalues not converged
     ethr =  1.64E-06,  avg # of iterations = 12.4

     total cpu time spent up to now is     4217.5 secs

     total energy              =   -1988.20540273 Ry
     estimated scf accuracy    <       0.00184118 Ry

     total magnetization       =    -0.00 Bohr mag/cell
     absolute magnetization    =     0.01 Bohr mag/cell

     iteration #  6     ecut=    60.00 Ry     beta= 0.30
     Davidson diagonalization with overlap
     ethr =  9.59E-07,  avg # of iterations =  4.4

     total cpu time spent up to now is     4245.2 secs

     total energy              =   -1988.20175687 Ry
     estimated scf accuracy    <       0.00493721 Ry

     total magnetization       =    -0.00 Bohr mag/cell
     absolute magnetization    =     0.01 Bohr mag/cell

     iteration #  7     ecut=    60.00 Ry     beta= 0.30
     Davidson diagonalization with overlap
     ethr =  9.59E-07,  avg # of iterations =  6.0

     total cpu time spent up to now is     4288.1 secs

     total energy              =   -1988.20349118 Ry
     estimated scf accuracy    <       0.00531494 Ry

     total magnetization       =     0.00 Bohr mag/cell
     absolute magnetization    =     0.01 Bohr mag/cell

     iteration #  8     ecut=    60.00 Ry     beta= 0.30
     Davidson diagonalization with overlap
     ethr =  9.59E-07,  avg # of iterations =  2.0

     total cpu time spent up to now is     4313.2 secs

     total energy              =   -1988.20314435 Ry
     estimated scf accuracy    <       0.00150009 Ry

     total magnetization       =     0.00 Bohr mag/cell
     absolute magnetization    =     0.00 Bohr mag/cell

     iteration #  9     ecut=    60.00 Ry     beta= 0.30
     Davidson diagonalization with overlap
     ethr =  7.81E-07,  avg # of iterations =  5.5

     total cpu time spent up to now is     4348.7 secs

     total energy              =   -1988.20371731 Ry
     estimated scf accuracy    <       0.00003990 Ry

     total magnetization       =    -0.00 Bohr mag/cell
     absolute magnetization    =     0.00 Bohr mag/cell

     iteration # 10     ecut=    60.00 Ry     beta= 0.30
     Davidson diagonalization with overlap
     ethr =  2.08E-08,  avg # of iterations =  6.1

     total cpu time spent up to now is     4383.5 secs

     total energy              =   -1988.20373324 Ry
     estimated scf accuracy    <       0.00005377 Ry

     total magnetization       =    -0.00 Bohr mag/cell
     absolute magnetization    =     0.00 Bohr mag/cell

     iteration # 11     ecut=    60.00 Ry     beta= 0.30
     Davidson diagonalization with overlap
     ethr =  2.08E-08,  avg # of iterations =  1.2

     total cpu time spent up to now is     4407.4 secs

     total energy              =   -1988.20372267 Ry
     estimated scf accuracy    <       0.00003306 Ry

     total magnetization       =    -0.00 Bohr mag/cell
     absolute magnetization    =     0.00 Bohr mag/cell

     iteration # 12     ecut=    60.00 Ry     beta= 0.30
     Davidson diagonalization with overlap
     ethr =  1.72E-08,  avg # of iterations =  2.5

     total cpu time spent up to now is     4441.4 secs

     total energy              =   -1988.20373019 Ry
     estimated scf accuracy    <       0.00001172 Ry

     total magnetization       =     0.00 Bohr mag/cell
     absolute magnetization    =     0.00 Bohr mag/cell

     iteration # 13     ecut=    60.00 Ry     beta= 0.30
     Davidson diagonalization with overlap
     ethr =  6.10E-09,  avg # of iterations =  5.1

     total cpu time spent up to now is     4501.2 secs

     total energy              =   -1988.20371896 Ry
     estimated scf accuracy    <       0.00005704 Ry

     total magnetization       =    -0.00 Bohr mag/cell
     absolute magnetization    =     0.00 Bohr mag/cell

     iteration # 14     ecut=    60.00 Ry     beta= 0.30
     Davidson diagonalization with overlap
     ethr =  6.10E-09,  avg # of iterations =  3.5

     total cpu time spent up to now is     4547.1 secs

     total energy              =   -1988.20372650 Ry
     estimated scf accuracy    <       0.00000768 Ry

     total magnetization       =    -0.00 Bohr mag/cell
     absolute magnetization    =     0.00 Bohr mag/cell

     iteration # 15     ecut=    60.00 Ry     beta= 0.30
     Davidson diagonalization with overlap
     ethr =  4.00E-09,  avg # of iterations =  2.0

     total cpu time spent up to now is     4576.1 secs

     total energy              =   -1988.20372615 Ry
     estimated scf accuracy    <       0.00001234 Ry

     total magnetization       =     0.00 Bohr mag/cell
     absolute magnetization    =     0.00 Bohr mag/cell

     iteration # 16     ecut=    60.00 Ry     beta= 0.30
     Davidson diagonalization with overlap
     ethr =  4.00E-09,  avg # of iterations =  1.6

     total cpu time spent up to now is     4603.3 secs

     total energy              =   -1988.20372427 Ry
     estimated scf accuracy    <       0.00000941 Ry

     total magnetization       =     0.00 Bohr mag/cell
     absolute magnetization    =     0.00 Bohr mag/cell

     iteration # 17     ecut=    60.00 Ry     beta= 0.30
     Davidson diagonalization with overlap
     ethr =  4.00E-09,  avg # of iterations =  2.0

     total cpu time spent up to now is     4632.3 secs

     total energy              =   -1988.20372324 Ry
     estimated scf accuracy    <       0.00000326 Ry

     total magnetization       =     0.00 Bohr mag/cell
     absolute magnetization    =     0.00 Bohr mag/cell

     iteration # 18     ecut=    60.00 Ry     beta= 0.30
     Davidson diagonalization with overlap
     ethr =  1.70E-09,  avg # of iterations =  4.8

     Magnetic moment per site:
     atom:    1    charge:    8.1137    magn:    0.0000    constr:    0.0000
     atom:    2    charge:    8.1137    magn:    0.0000    constr:    0.0000
     atom:    3    charge:    8.1137    magn:    0.0000    constr:    0.0000
     atom:    4    charge:    8.1137    magn:    0.0000    constr:    0.0000
     atom:    5    charge:    8.0824    magn:    0.0000    constr:    0.0000
     atom:    6    charge:    8.0824    magn:    0.0000    constr:    0.0000
     atom:    7    charge:    8.0824    magn:    0.0000    constr:    0.0000
     atom:    8    charge:    8.0824    magn:    0.0000    constr:    0.0000
     atom:    9    charge:    0.3885    magn:    0.0000    constr:    0.0000
     atom:   10    charge:    0.3885    magn:    0.0000    constr:    0.0000
     atom:   11    charge:    0.3885    magn:    0.0000    constr:    0.0000
     atom:   12    charge:    0.3885    magn:    0.0000    constr:    0.0000
     atom:   13    charge:    4.0573    magn:   -0.0000    constr:    0.0000
     atom:   14    charge:    4.0573    magn:   -0.0000    constr:    0.0000
     atom:   15    charge:    4.0573    magn:   -0.0000    constr:    0.0000
     atom:   16    charge:    4.0573    magn:   -0.0000    constr:    0.0000
     atom:   17    charge:    4.0549    magn:    0.0000    constr:    0.0000
     atom:   18    charge:    4.0549    magn:    0.0000    constr:    0.0000
     atom:   19    charge:    4.0549    magn:    0.0000    constr:    0.0000
     atom:   20    charge:    4.0549    magn:    0.0000    constr:    0.0000
     atom:   21    charge:    4.0408    magn:   -0.0000    constr:    0.0000
     atom:   22    charge:    4.0408    magn:   -0.0000    constr:    0.0000
     atom:   23    charge:    4.0408    magn:   -0.0000    constr:    0.0000
     atom:   24    charge:    4.0408    magn:   -0.0000    constr:    0.0000
     atom:   25    charge:    4.0408    magn:   -0.0000    constr:    0.0000
     atom:   26    charge:    4.0408    magn:   -0.0000    constr:    0.0000
     atom:   27    charge:    4.0408    magn:   -0.0000    constr:    0.0000
     atom:   28    charge:    4.0408    magn:   -0.0000    constr:    0.0000

     total cpu time spent up to now is     4663.6 secs

     End of self-consistent calculation

 ------ SPIN UP ------------


          k = 0.0000 0.0000 0.0000 ( 15339 PWs)   bands (ev):

   -66.9626 -66.9626 -66.9625 -66.9625 -66.9172 -66.9172 -66.9151 -66.9150
   -33.7378 -33.7373 -33.7355 -33.7353 -33.7090 -33.7068 -33.7049 -33.7045
   -33.6989 -33.6956 -33.6864 -33.6850 -33.6821 -33.6818 -33.6680 -33.6674
   -33.6655 -33.6648 -33.6627 -33.6624 -33.6548 -33.6541 -33.6482 -33.6480
   -13.0151 -12.8070 -12.5093 -12.3901 -11.3871 -11.3308 -11.2437 -11.2133
   -11.2127 -11.0392 -11.0106 -10.9708 -10.8980 -10.8833 -10.8402 -10.7755
    -0.5241  -0.4591  -0.0201   0.0707   0.2779   0.3926   0.9777   0.9823
     1.1429   1.5006   1.5034   1.6269   1.8704   2.2176   2.3481   2.5064
     2.7097   2.9796   3.0470   3.0664   3.0713   3.1026   3.1751   3.2668
     3.4667   3.5081   3.6766   3.7221   3.7369   3.9513   3.9907   3.9914
     4.0383   4.2944   4.2998   4.3527   4.3597   4.3984   4.6155   4.6726
     4.6855   4.8227   4.8578   4.9208   4.9838   5.0088   5.1335   5.5144
    10.1361  12.1142  12.4312  13.7332  14.0222  14.1448  14.3287  14.3309
    14.3582  14.7477  14.7530  15.0152  15.0875  15.5341  15.8624  15.8871
    15.9577  16.4414  16.5009

          k = 0.0000 0.0000-0.3905 ( 15392 PWs)   bands (ev):

   -66.9626 -66.9626 -66.9626 -66.9626 -66.9161 -66.9161 -66.9161 -66.9161
   -33.7365 -33.7365 -33.7364 -33.7364 -33.7057 -33.7057 -33.7054 -33.7054
   -33.6844 -33.6844 -33.6841 -33.6841 -33.6809 -33.6809 -33.6806 -33.6806
   -33.6661 -33.6661 -33.6658 -33.6658 -33.6516 -33.6516 -33.6513 -33.6513
   -12.7301 -12.7301 -12.6383 -12.6383 -11.2973 -11.2973 -11.2890 -11.2890
   -11.1953 -11.1953 -10.9656 -10.9656 -10.8823 -10.8823 -10.7916 -10.7916
    -0.1875  -0.1875  -0.1802  -0.1802   0.7844   0.7844   0.8404   0.8404
     1.4261   1.4261   1.8296   1.8296   2.1080   2.1080   2.4229   2.4229
     2.6822   2.6822   2.8528   2.8528   3.1303   3.1303   3.2584   3.2584
     3.2993   3.2993   3.4487   3.4487   3.7629   3.7629   3.8188   3.8188
     4.1472   4.1472   4.2794   4.2794   4.3693   4.3693   4.4781   4.4781
     4.7158   4.7158   4.7539   4.7539   5.0398   5.0398   5.1628   5.1628
    11.9387  11.9387  13.0427  13.0427  13.5726  13.5726  14.6544  14.6544
    14.9720  14.9720  15.8146  15.8146  15.9142  15.9142  15.9529  15.9529
    16.1176  16.1176  16.5281

          k =-0.4966 0.0000 0.0000 ( 15374 PWs)   bands (ev):

   -66.9626 -66.9626 -66.9626 -66.9626 -66.9172 -66.9172 -66.9151 -66.9151
   -33.7367 -33.7367 -33.7364 -33.7364 -33.7077 -33.7077 -33.7050 -33.7050
   -33.6971 -33.6971 -33.6843 -33.6843 -33.6835 -33.6835 -33.6678 -33.6678
   -33.6650 -33.6650 -33.6627 -33.6627 -33.6545 -33.6545 -33.6481 -33.6481
   -12.5742 -12.5742 -12.2605 -12.2605 -11.7597 -11.7597 -11.5197 -11.5197
   -11.0962 -11.0962 -10.9042 -10.9042 -10.9028 -10.9028 -10.8982 -10.8982
    -0.3087  -0.3087  -0.2388  -0.2388   1.1581   1.1581   1.2186   1.2186
     1.6421   1.6421   1.7538   1.7538   1.8942   1.8942   2.2280   2.2280
     2.3575   2.3575   2.4586   2.4586   2.5349   2.5349   2.9487   2.9487
     3.4329   3.4329   3.5915   3.5915   3.8509   3.8509   3.9579   3.9579
     4.4996   4.4996   4.5893   4.5893   4.6362   4.6362   4.7177   4.7177
     4.9476   4.9476   5.0076   5.0076   5.0819   5.0819   5.2919   5.2919
    12.4393  12.4393  13.2020  13.2020  13.5094  13.5094  13.8444  13.8444
    14.1384  14.1384  14.8145  14.8145  15.1179  15.1179  15.7545  15.7545
    16.5803  16.5803  16.7370

          k =-0.4966 0.0000-0.3905 ( 15436 PWs)   bands (ev):

   -66.9626 -66.9626 -66.9626 -66.9626 -66.9161 -66.9161 -66.9161 -66.9161
   -33.7367 -33.7367 -33.7365 -33.7365 -33.7057 -33.7057 -33.7054 -33.7054
   -33.6844 -33.6844 -33.6838 -33.6838 -33.6811 -33.6811 -33.6804 -33.6804
   -33.6665 -33.6665 -33.6655 -33.6655 -33.6518 -33.6518 -33.6512 -33.6512
   -12.4292 -12.4292 -12.3755 -12.3755 -11.6528 -11.6528 -11.6510 -11.6510
   -11.0843 -11.0843 -11.0000 -11.0000 -10.8782 -10.8782 -10.8766 -10.8766
    -0.1709  -0.1709  -0.0754  -0.0754   1.3855   1.3855   1.6211   1.6211
     1.7154   1.7154   1.8018   1.8018   1.8887   1.8887   2.1954   2.1954
     2.2344   2.2344   2.2469   2.2469   2.7303   2.7303   2.7637   2.7637
     2.9403   2.9403   3.3389   3.3389   3.8476   3.8476   3.9088   3.9088
     4.1694   4.1694   4.5385   4.5385   4.6381   4.6381   4.7815   4.7815
     4.9267   4.9267   4.9461   4.9461   5.1341   5.1341   5.1678   5.1678
    13.2437  13.2437  13.4006  13.4006  13.9845  13.9845  14.0766  14.0766
    14.7180  14.7180  14.8878  14.8878  15.3381  15.3381  15.3991  15.3991
    16.1724  16.2250  16.2255

 ------ SPIN DOWN ----------


          k = 0.0000 0.0000 0.0000 ( 15339 PWs)   bands (ev):

   -66.9626 -66.9626 -66.9626 -66.9625 -66.9172 -66.9172 -66.9151 -66.9150
   -33.7378 -33.7373 -33.7355 -33.7353 -33.7090 -33.7068 -33.7049 -33.7045
   -33.6989 -33.6956 -33.6864 -33.6850 -33.6822 -33.6819 -33.6680 -33.6674
   -33.6655 -33.6648 -33.6627 -33.6624 -33.6548 -33.6541 -33.6482 -33.6480
   -13.0151 -12.8070 -12.5092 -12.3901 -11.3871 -11.3307 -11.2437 -11.2133
   -11.2127 -11.0392 -11.0105 -10.9708 -10.8979 -10.8833 -10.8402 -10.7755
    -0.5241  -0.4591  -0.0201   0.0707   0.2779   0.3926   0.9777   0.9823
     1.1429   1.5006   1.5034   1.6269   1.8704   2.2176   2.3482   2.5065
     2.7097   2.9796   3.0470   3.0664   3.0713   3.1026   3.1751   3.2668
     3.4668   3.5081   3.6766   3.7221   3.7369   3.9514   3.9908   3.9914
     4.0383   4.2945   4.2999   4.3527   4.3597   4.3984   4.6155   4.6726
     4.6855   4.8227   4.8578   4.9209   4.9838   5.0088   5.1335   5.5144
    10.1360  12.1141  12.4311  13.7332  14.0221  14.1447  14.3287  14.3309
    14.3581  14.7476  14.7530  15.0151  15.0875  15.5340  15.8624  15.8871
    15.9576  16.4413  16.5009

          k = 0.0000 0.0000-0.3905 ( 15392 PWs)   bands (ev):

   -66.9626 -66.9626 -66.9626 -66.9626 -66.9161 -66.9161 -66.9161 -66.9161
   -33.7366 -33.7366 -33.7364 -33.7364 -33.7057 -33.7057 -33.7054 -33.7054
   -33.6844 -33.6844 -33.6841 -33.6841 -33.6809 -33.6809 -33.6806 -33.6806
   -33.6661 -33.6661 -33.6658 -33.6658 -33.6516 -33.6516 -33.6513 -33.6513
   -12.7301 -12.7301 -12.6383 -12.6383 -11.2972 -11.2972 -11.2889 -11.2889
   -11.1953 -11.1953 -10.9656 -10.9656 -10.8822 -10.8822 -10.7916 -10.7916
    -0.1875  -0.1875  -0.1802  -0.1802   0.7844   0.7844   0.8404   0.8404
     1.4261   1.4261   1.8296   1.8296   2.1080   2.1080   2.4230   2.4230
     2.6822   2.6822   2.8529   2.8529   3.1303   3.1303   3.2585   3.2585
     3.2994   3.2994   3.4487   3.4487   3.7630   3.7630   3.8188   3.8188
     4.1472   4.1472   4.2794   4.2794   4.3693   4.3693   4.4782   4.4782
     4.7158   4.7158   4.7539   4.7539   5.0398   5.0398   5.1628   5.1628
    11.9387  11.9387  13.0427  13.0427  13.5726  13.5726  14.6544  14.6544
    14.9720  14.9720  15.8145  15.8145  15.9141  15.9141  15.9529  15.9529
    16.1176  16.1176  16.5280

          k =-0.4966 0.0000 0.0000 ( 15374 PWs)   bands (ev):

   -66.9626 -66.9626 -66.9626 -66.9626 -66.9172 -66.9172 -66.9151 -66.9151
   -33.7368 -33.7368 -33.7365 -33.7365 -33.7078 -33.7078 -33.7050 -33.7050
   -33.6971 -33.6971 -33.6843 -33.6843 -33.6835 -33.6835 -33.6678 -33.6678
   -33.6650 -33.6650 -33.6627 -33.6627 -33.6545 -33.6545 -33.6481 -33.6481
   -12.5742 -12.5742 -12.2604 -12.2604 -11.7596 -11.7596 -11.5197 -11.5197
   -11.0961 -11.0961 -10.9041 -10.9041 -10.9027 -10.9027 -10.8982 -10.8982
    -0.3087  -0.3087  -0.2388  -0.2388   1.1581   1.1581   1.2186   1.2186
     1.6421   1.6421   1.7538   1.7538   1.8942   1.8942   2.2280   2.2280
     2.3575   2.3575   2.4586   2.4586   2.5350   2.5350   2.9487   2.9487
     3.4329   3.4329   3.5916   3.5916   3.8509   3.8509   3.9579   3.9579
     4.4996   4.4996   4.5894   4.5894   4.6362   4.6362   4.7177   4.7177
     4.9476   4.9476   5.0077   5.0077   5.0819   5.0819   5.2919   5.2919
    12.4393  12.4393  13.2019  13.2019  13.5093  13.5093  13.8443  13.8443
    14.1383  14.1383  14.8145  14.8145  15.1179  15.1179  15.7544  15.7544
    16.5803  16.5812  16.7369

          k =-0.4966 0.0000-0.3905 ( 15436 PWs)   bands (ev):

   -66.9626 -66.9626 -66.9626 -66.9626 -66.9161 -66.9161 -66.9161 -66.9161
   -33.7367 -33.7367 -33.7365 -33.7365 -33.7057 -33.7057 -33.7055 -33.7055
   -33.6845 -33.6845 -33.6838 -33.6838 -33.6811 -33.6811 -33.6804 -33.6804
   -33.6665 -33.6665 -33.6655 -33.6655 -33.6518 -33.6518 -33.6512 -33.6512
   -12.4292 -12.4292 -12.3755 -12.3755 -11.6527 -11.6527 -11.6510 -11.6510
   -11.0843 -11.0843 -11.0000 -11.0000 -10.8781 -10.8781 -10.8765 -10.8765
    -0.1709  -0.1709  -0.0754  -0.0754   1.3855   1.3855   1.6211   1.6211
     1.7154   1.7154   1.8018   1.8018   1.8887   1.8887   2.1954   2.1954
     2.2344   2.2344   2.2469   2.2469   2.7304   2.7304   2.7637   2.7637
     2.9403   2.9403   3.3390   3.3390   3.8476   3.8476   3.9088   3.9088
     4.1694   4.1694   4.5385   4.5385   4.6381   4.6381   4.7816   4.7816
     4.9267   4.9267   4.9461   4.9461   5.1341   5.1341   5.1678   5.1678
    13.2437  13.2437  13.4005  13.4005  13.9845  13.9845  14.0766  14.0766
    14.7180  14.7180  14.8877  14.8877  15.3380  15.3380  15.3990  15.3990
    16.1723  16.2248  16.2255

     the Fermi energy is     6.4786 ev

!    total energy              =   -1988.20372430 Ry

     total all-electron energy =     -7937.299577 Ry
     estimated scf accuracy    <       0.00000003 Ry
     smearing contrib. (-TS)   =      -0.00000000 Ry
     internal energy E=F+TS    =   -1988.20372430 Ry

     The total energy is F=E-TS. E is the sum of the following terms:
     one-electron contribution =    -934.35142488 Ry
     hartree contribution      =     542.20742490 Ry
     xc contribution           =    -288.04821374 Ry
     ewald contribution        =    -892.80547208 Ry
     one-center paw contrib.   =    -415.20603850 Ry

     total magnetization       =    -0.00 Bohr mag/cell
     absolute magnetization    =     0.00 Bohr mag/cell

     convergence has been achieved in  18 iterations

     Forces acting on atoms (cartesian axes, Ry/au):

     atom    1 type  1   force =     0.00000000    0.00000000    0.00000000
     atom    2 type  1   force =     0.00000000   -0.00000000    0.00000000
     atom    3 type  1   force =     0.00000000    0.00000000    0.00000000
     atom    4 type  1   force =    -0.00000000    0.00000000    0.00000000
     atom    5 type  1   force =    -0.00080049   -0.00162490    0.00000000
     atom    6 type  1   force =     0.00080049    0.00162490    0.00000000
     atom    7 type  1   force =    -0.00080049    0.00162490   -0.00000000
     atom    8 type  1   force =     0.00080049   -0.00162490    0.00000000
     atom    9 type  2   force =     0.00399875   -0.00240512   -0.00000000
     atom   10 type  2   force =    -0.00399875    0.00240512   -0.00000000
     atom   11 type  2   force =     0.00399875    0.00240512    0.00000000
     atom   12 type  2   force =    -0.00399875   -0.00240512    0.00000000
     atom   13 type  3   force =     0.00192370    0.00992915    0.00000000
     atom   14 type  3   force =    -0.00192370   -0.00992915    0.00000000
     atom   15 type  3   force =     0.00192370   -0.00992915    0.00000000
     atom   16 type  3   force =    -0.00192370    0.00992915    0.00000000
     atom   17 type  3   force =    -0.00513879    0.00074902   -0.00000000
     atom   18 type  3   force =     0.00513879   -0.00074902   -0.00000000
     atom   19 type  3   force =    -0.00513879   -0.00074902    0.00000000
     atom   20 type  3   force =     0.00513879    0.00074902    0.00000000
     atom   21 type  3   force =    -0.00522692   -0.00376143    0.00346013
     atom   22 type  3   force =     0.00522692    0.00376143   -0.00346013
     atom   23 type  3   force =    -0.00522692    0.00376143   -0.00346013
     atom   24 type  3   force =     0.00522692   -0.00376143    0.00346013
     atom   25 type  3   force =     0.00522692    0.00376143    0.00346013
     atom   26 type  3   force =    -0.00522692   -0.00376143   -0.00346013
     atom   27 type  3   force =     0.00522692   -0.00376143   -0.00346013
     atom   28 type  3   force =    -0.00522692    0.00376143    0.00346013

     Total force =     0.032323     Total SCF correction =     0.000510


     Computing stress (Cartesian axis) and pressure

          total   stress  (Ry/bohr**3)                   (kbar)     P=       -4.34
   0.00000386   0.00000000   0.00000000            0.57        0.00        0.00
   0.00000000  -0.00000690   0.00000000            0.00       -1.01        0.00
   0.00000000   0.00000000  -0.00008548            0.00        0.00      -12.57

     Energy error            =      1.4E-02
     Gradient error          =      9.9E-03
     Cell gradient error     =      8.5E-05


     number of scf cycles    =   5
     number of bfgs steps    =   4

     enthalpy old            =   -1988.1898861329 Ry
     enthalpy new            =   -1988.2037243000 Ry

     CASE: enthalpy_new < enthalpy_old

     new trust radius        =       0.0207699015 bohr
     new conv_thr            =       0.0000000993 Ry

     new unit-cell volume =   2020.97649 a.u.^3 (   299.47782 Ang^3 )
     density =      3.12040 g/cm^3

CELL_PARAMETERS (angstrom)
   4.786847811   0.000000000   0.000000000
   0.000000000  10.301315385   0.000000000
   0.000000000   0.000000000   6.073266734

ATOMIC_POSITIONS (angstrom)
Mg            0.0000000000        0.0000000000        0.0000000000
Mg            2.3934239056        5.1506576924        0.0000000000
Mg            0.0000000000        0.0000000000        3.0366333668
Mg            2.3934239056        5.1506576924        3.0366333668
Mg            0.0601968982        2.8552437835        4.5549500502
Mg            4.7266509130        7.4460716014        1.5183166834
Mg            2.4536208037        2.2954139089        1.5183166834
Mg            2.3332270074        8.0059014759        4.5549500502
Si            0.3609616839        4.2016488985        1.5183166834
Si            4.4258861272        6.0996664863        4.5549500502
Si            2.7543855894        0.9490087939        4.5549500502
Si            2.0324622217        9.3523065909        1.5183166834
O             1.1215096579        0.9176906869        4.5549500502
O             3.6653381532        9.3836246980        1.5183166834
O             3.5149335634        4.2329670055        1.5183166834
O             1.2719142477        6.0683483793        4.5549500502
O             1.3366243356        0.5693389260        1.5183166834
O             3.4502234755        9.7319764588        4.5549500502
O             3.7300482412        4.5813187664        4.5549500502
O             1.0567995699        5.7199966184        1.5183166834
O             1.0824227134        3.4844534497        2.8267593196
O             3.7044250977        6.8168619352        3.2465074140
O             3.4758466189        1.6662042427        3.2465074140
O             1.3110011922        8.6351111421        2.8267593196
O             3.7044250977        6.8168619352        5.8633926864
O             1.0824227134        3.4844534497        0.2098740472
O             1.3110011922        8.6351111421        0.2098740472
O             3.4758466189        1.6662042427        5.8633926864



     Writing output data file ./out/oliv.save/
     NEW-OLD atomic charge density approx. for the potential

     Check: negative core charge=   -0.000009
     extrapolated charge  191.51239, renormalised to  192.00000
     Generating pointlists ...

     total cpu time spent up to now is     4694.0 secs

     Self-consistent Calculation

     iteration #  1     ecut=    60.00 Ry     beta= 0.30
     Davidson diagonalization with overlap
     ethr =  1.00E-06,  avg # of iterations =  8.0

     total cpu time spent up to now is     4753.6 secs

     total energy              =   -1988.20113335 Ry
     estimated scf accuracy    <       0.00322063 Ry

     total magnetization       =    -0.00 Bohr mag/cell
     absolute magnetization    =     0.00 Bohr mag/cell

     iteration #  2     ecut=    60.00 Ry     beta= 0.30
     Davidson diagonalization with overlap
     ethr =  1.68E-06,  avg # of iterations =  7.1

     total cpu time spent up to now is     4792.9 secs

     total energy              =   -1988.20517424 Ry
     estimated scf accuracy    <       0.00174799 Ry

     total magnetization       =     0.00 Bohr mag/cell
     absolute magnetization    =     0.00 Bohr mag/cell

     iteration #  3     ecut=    60.00 Ry     beta= 0.30
     Davidson diagonalization with overlap
     ethr =  9.10E-07,  avg # of iterations =  2.0

     total cpu time spent up to now is     4815.1 secs

     total energy              =   -1988.20471418 Ry
     estimated scf accuracy    <       0.00091881 Ry

     total magnetization       =     0.00 Bohr mag/cell
     absolute magnetization    =     0.00 Bohr mag/cell

     iteration #  4     ecut=    60.00 Ry     beta= 0.30
     Davidson diagonalization with overlap
     ethr =  4.79E-07,  avg # of iterations =  4.8

     total cpu time spent up to now is     4846.8 secs

     total energy              =   -1988.20506961 Ry
     estimated scf accuracy    <       0.00010728 Ry

     total magnetization       =     0.00 Bohr mag/cell
     absolute magnetization    =     0.00 Bohr mag/cell

     iteration #  5     ecut=    60.00 Ry     beta= 0.30
     Davidson diagonalization with overlap
     ethr =  5.59E-08,  avg # of iterations =  6.2

     total cpu time spent up to now is     4874.5 secs

     total energy              =   -1988.20508284 Ry
     estimated scf accuracy    <       0.00003645 Ry

     total magnetization       =    -0.00 Bohr mag/cell
     absolute magnetization    =     0.00 Bohr mag/cell

     iteration #  6     ecut=    60.00 Ry     beta= 0.30
     Davidson diagonalization with overlap
     ethr =  1.90E-08,  avg # of iterations =  7.9

     total cpu time spent up to now is     4916.3 secs

     total energy              =   -1988.20506836 Ry
     estimated scf accuracy    <       0.00026354 Ry

     total magnetization       =    -0.00 Bohr mag/cell
     absolute magnetization    =     0.00 Bohr mag/cell

     iteration #  7     ecut=    60.00 Ry     beta= 0.30
     Davidson diagonalization with overlap
     ethr =  1.90E-08,  avg # of iterations =  4.0

     total cpu time spent up to now is     4953.4 secs

     total energy              =   -1988.20509593 Ry
     estimated scf accuracy    <       0.00001056 Ry

     total magnetization       =    -0.00 Bohr mag/cell
     absolute magnetization    =     0.00 Bohr mag/cell

     iteration #  8     ecut=    60.00 Ry     beta= 0.30
     Davidson diagonalization with overlap
     ethr =  5.50E-09,  avg # of iterations =  5.9

     total cpu time spent up to now is     4982.6 secs

     total energy              =   -1988.20509916 Ry
     estimated scf accuracy    <       0.00000039 Ry

     total magnetization       =     0.00 Bohr mag/cell
     absolute magnetization    =     0.00 Bohr mag/cell

     iteration #  9     ecut=    60.00 Ry     beta= 0.30
     Davidson diagonalization with overlap
     ethr =  2.02E-10,  avg # of iterations = 10.4

     Magnetic moment per site:
     atom:    1    charge:    8.1142    magn:    0.0000    constr:    0.0000
     atom:    2    charge:    8.1142    magn:    0.0000    constr:    0.0000
     atom:    3    charge:    8.1142    magn:    0.0000    constr:    0.0000
     atom:    4    charge:    8.1142    magn:    0.0000    constr:    0.0000
     atom:    5    charge:    8.0838    magn:   -0.0000    constr:    0.0000
     atom:    6    charge:    8.0838    magn:   -0.0000    constr:    0.0000
     atom:    7    charge:    8.0838    magn:   -0.0000    constr:    0.0000
     atom:    8    charge:    8.0838    magn:   -0.0000    constr:    0.0000
     atom:    9    charge:    0.3887    magn:    0.0000    constr:    0.0000
     atom:   10    charge:    0.3887    magn:    0.0000    constr:    0.0000
     atom:   11    charge:    0.3887    magn:    0.0000    constr:    0.0000
     atom:   12    charge:    0.3887    magn:    0.0000    constr:    0.0000
     atom:   13    charge:    4.0569    magn:   -0.0000    constr:    0.0000
     atom:   14    charge:    4.0569    magn:   -0.0000    constr:    0.0000
     atom:   15    charge:    4.0569    magn:   -0.0000    constr:    0.0000
     atom:   16    charge:    4.0569    magn:   -0.0000    constr:    0.0000
     atom:   17    charge:    4.0547    magn:    0.0000    constr:    0.0000
     atom:   18    charge:    4.0547    magn:    0.0000    constr:    0.0000
     atom:   19    charge:    4.0547    magn:    0.0000    constr:    0.0000
     atom:   20    charge:    4.0547    magn:    0.0000    constr:    0.0000
     atom:   21    charge:    4.0420    magn:    0.0000    constr:    0.0000
     atom:   22    charge:    4.0420    magn:    0.0000    constr:    0.0000
     atom:   23    charge:    4.0420    magn:    0.0000    constr:    0.0000
     atom:   24    charge:    4.0420    magn:    0.0000    constr:    0.0000
     atom:   25    charge:    4.0420    magn:    0.0000    constr:    0.0000
     atom:   26    charge:    4.0420    magn:    0.0000    constr:    0.0000
     atom:   27    charge:    4.0420    magn:    0.0000    constr:    0.0000
     atom:   28    charge:    4.0420    magn:    0.0000    constr:    0.0000

     total cpu time spent up to now is     5028.5 secs

     End of self-consistent calculation

 ------ SPIN UP ------------


          k = 0.0000 0.0000 0.0000 ( 15339 PWs)   bands (ev):

   -66.9132 -66.9132 -66.9131 -66.9131 -66.8943 -66.8943 -66.8921 -66.8921
   -33.6893 -33.6881 -33.6869 -33.6860 -33.6785 -33.6774 -33.6586 -33.6560
   -33.6556 -33.6553 -33.6463 -33.6454 -33.6445 -33.6443 -33.6398 -33.6394
   -33.6356 -33.6337 -33.6325 -33.6324 -33.6306 -33.6292 -33.6238 -33.6234
   -12.9956 -12.7835 -12.4869 -12.3634 -11.3578 -11.3051 -11.2125 -11.1948
   -11.1789 -11.0255 -10.9979 -10.9576 -10.8859 -10.8710 -10.8251 -10.7609
    -0.4974  -0.4380   0.0082   0.0951   0.2879   0.4089   0.9887   1.0010
     1.1609   1.5137   1.5257   1.6483   1.8874   2.2334   2.3628   2.5286
     2.7261   2.9962   3.0700   3.0872   3.0981   3.1348   3.2003   3.2995
     3.4839   3.5329   3.7028   3.7434   3.7540   3.9695   4.0145   4.0177
     4.0474   4.3033   4.3363   4.3704   4.3856   4.4368   4.6410   4.6979
     4.7077   4.8478   4.8760   4.9356   5.0069   5.0279   5.1557   5.5321
    10.1840  12.1514  12.4985  13.8003  14.0685  14.1546  14.3475  14.3533
    14.4395  14.7787  14.8201  15.0463  15.1528  15.5640  15.9113  15.9242
    16.0198  16.4538  16.5280

          k = 0.0000 0.0000-0.3914 ( 15392 PWs)   bands (ev):

   -66.9132 -66.9132 -66.9132 -66.9132 -66.8932 -66.8932 -66.8932 -66.8932
   -33.6875 -33.6875 -33.6872 -33.6872 -33.6624 -33.6624 -33.6600 -33.6600
   -33.6563 -33.6563 -33.6531 -33.6531 -33.6452 -33.6452 -33.6436 -33.6436
   -33.6342 -33.6342 -33.6337 -33.6337 -33.6269 -33.6269 -33.6267 -33.6267
   -12.7074 -12.7074 -12.6140 -12.6140 -11.2659 -11.2659 -11.2637 -11.2637
   -11.1786 -11.1786 -10.9534 -10.9534 -10.8678 -10.8678 -10.7774 -10.7774
    -0.1607  -0.1607  -0.1515  -0.1515   0.7994   0.7994   0.8551   0.8551
     1.4450   1.4450   1.8487   1.8487   2.1292   2.1292   2.4423   2.4423
     2.7009   2.7009   2.8659   2.8659   3.1605   3.1605   3.2856   3.2856
     3.3151   3.3151   3.4765   3.4765   3.7841   3.7841   3.8466   3.8466
     4.1666   4.1666   4.3039   4.3039   4.3890   4.3890   4.5044   4.5044
     4.7350   4.7350   4.7723   4.7723   5.0559   5.0559   5.1771   5.1771
    11.9907  11.9907  13.1059  13.1059  13.6136  13.6136  14.7015  14.7015
    15.0000  15.0000  15.8273  15.8273  15.9657  15.9658  16.0130  16.0130
    16.1670  16.1670  16.5234

          k =-0.4966 0.0000 0.0000 ( 15374 PWs)   bands (ev):

   -66.9132 -66.9132 -66.9132 -66.9132 -66.8943 -66.8943 -66.8921 -66.8921
   -33.6880 -33.6880 -33.6874 -33.6874 -33.6779 -33.6779 -33.6572 -33.6572
   -33.6558 -33.6558 -33.6453 -33.6453 -33.6450 -33.6450 -33.6394 -33.6394
   -33.6344 -33.6344 -33.6329 -33.6329 -33.6299 -33.6299 -33.6236 -33.6236
   -12.5548 -12.5548 -12.2419 -12.2419 -11.7240 -11.7240 -11.4847 -11.4847
   -11.0833 -11.0833 -10.8920 -10.8920 -10.8887 -10.8887 -10.8841 -10.8841
    -0.2926  -0.2926  -0.2219  -0.2219   1.1788   1.1788   1.2361   1.2361
     1.6654   1.6654   1.7783   1.7783   1.9189   1.9189   2.2470   2.2470
     2.3773   2.3773   2.4838   2.4838   2.5515   2.5515   2.9728   2.9728
     3.4555   3.4555   3.6148   3.6148   3.8745   3.8745   3.9789   3.9789
     4.5193   4.5193   4.6143   4.6143   4.6523   4.6523   4.7522   4.7522
     4.9688   4.9688   5.0245   5.0245   5.1031   5.1031   5.3101   5.3101
    12.4994  12.4994  13.2493  13.2493  13.5612  13.5612  13.8647  13.8647
    14.1771  14.1771  14.8425  14.8425  15.1632  15.1632  15.7995  15.7995
    16.6183  16.6188  16.7568

          k =-0.4966 0.0000-0.3914 ( 15436 PWs)   bands (ev):

   -66.9132 -66.9132 -66.9132 -66.9132 -66.8932 -66.8932 -66.8932 -66.8932
   -33.6877 -33.6877 -33.6874 -33.6874 -33.6623 -33.6623 -33.6600 -33.6600
   -33.6560 -33.6560 -33.6534 -33.6534 -33.6445 -33.6445 -33.6443 -33.6443
   -33.6346 -33.6346 -33.6332 -33.6332 -33.6275 -33.6275 -33.6262 -33.6262
   -12.4096 -12.4096 -12.3545 -12.3545 -11.6175 -11.6175 -11.6171 -11.6171
   -11.0733 -11.0733 -10.9875 -10.9875 -10.8638 -10.8638 -10.8632 -10.8632
    -0.1522  -0.1522  -0.0550  -0.0550   1.4093   1.4093   1.6396   1.6396
     1.7310   1.7310   1.8281   1.8281   1.9128   1.9128   2.2186   2.2186
     2.2588   2.2588   2.2691   2.2691   2.7494   2.7494   2.7917   2.7917
     2.9599   2.9599   3.3633   3.3633   3.8683   3.8683   3.9271   3.9271
     4.1944   4.1944   4.5551   4.5551   4.6631   4.6631   4.7976   4.7976
     4.9460   4.9460   4.9695   4.9695   5.1503   5.1503   5.1840   5.1840
    13.3131  13.3131  13.4497  13.4497  14.0386  14.0386  14.0909  14.0909
    14.7443  14.7443  14.9518  14.9518  15.3525  15.3525  15.4413  15.4413
    16.2101  16.2751  16.2759

 ------ SPIN DOWN ----------


          k = 0.0000 0.0000 0.0000 ( 15339 PWs)   bands (ev):

   -66.9132 -66.9132 -66.9131 -66.9131 -66.8943 -66.8943 -66.8921 -66.8921
   -33.6893 -33.6881 -33.6869 -33.6860 -33.6786 -33.6774 -33.6586 -33.6560
   -33.6556 -33.6553 -33.6463 -33.6454 -33.6446 -33.6443 -33.6398 -33.6394
   -33.6357 -33.6337 -33.6325 -33.6324 -33.6306 -33.6292 -33.6238 -33.6235
   -12.9956 -12.7835 -12.4869 -12.3634 -11.3578 -11.3051 -11.2125 -11.1948
   -11.1789 -11.0255 -10.9979 -10.9576 -10.8859 -10.8710 -10.8251 -10.7609
    -0.4974  -0.4380   0.0082   0.0951   0.2879   0.4089   0.9887   1.0010
     1.1609   1.5137   1.5257   1.6483   1.8874   2.2334   2.3628   2.5286
     2.7261   2.9962   3.0700   3.0872   3.0981   3.1348   3.2003   3.2995
     3.4839   3.5329   3.7028   3.7434   3.7540   3.9695   4.0145   4.0177
     4.0474   4.3033   4.3363   4.3704   4.3856   4.4368   4.6410   4.6979
     4.7077   4.8478   4.8760   4.9356   5.0069   5.0279   5.1557   5.5321
    10.1840  12.1514  12.4985  13.8003  14.0685  14.1546  14.3475  14.3533
    14.4395  14.7787  14.8201  15.0463  15.1528  15.5640  15.9113  15.9241
    16.0198  16.4538  16.5281

          k = 0.0000 0.0000-0.3914 ( 15392 PWs)   bands (ev):

   -66.9132 -66.9132 -66.9132 -66.9132 -66.8932 -66.8932 -66.8932 -66.8932
   -33.6875 -33.6875 -33.6872 -33.6872 -33.6624 -33.6624 -33.6600 -33.6600
   -33.6563 -33.6563 -33.6531 -33.6531 -33.6452 -33.6452 -33.6436 -33.6436
   -33.6342 -33.6342 -33.6337 -33.6337 -33.6269 -33.6269 -33.6267 -33.6267
   -12.7074 -12.7074 -12.6140 -12.6140 -11.2659 -11.2659 -11.2637 -11.2637
   -11.1786 -11.1786 -10.9534 -10.9534 -10.8678 -10.8678 -10.7774 -10.7774
    -0.1607  -0.1607  -0.1515  -0.1515   0.7994   0.7994   0.8551   0.8551
     1.4450   1.4450   1.8487   1.8487   2.1292   2.1292   2.4423   2.4423
     2.7009   2.7009   2.8659   2.8659   3.1605   3.1605   3.2856   3.2856
     3.3151   3.3151   3.4765   3.4765   3.7841   3.7841   3.8466   3.8466
     4.1666   4.1666   4.3039   4.3039   4.3890   4.3890   4.5044   4.5044
     4.7350   4.7350   4.7723   4.7723   5.0559   5.0559   5.1771   5.1771
    11.9907  11.9907  13.1059  13.1059  13.6136  13.6136  14.7015  14.7015
    15.0000  15.0000  15.8273  15.8273  15.9657  15.9658  16.0130  16.0130
    16.1670  16.1670  16.5234

          k =-0.4966 0.0000 0.0000 ( 15374 PWs)   bands (ev):

   -66.9132 -66.9132 -66.9132 -66.9132 -66.8943 -66.8943 -66.8921 -66.8921
   -33.6880 -33.6880 -33.6874 -33.6874 -33.6779 -33.6779 -33.6572 -33.6572
   -33.6558 -33.6558 -33.6453 -33.6453 -33.6450 -33.6450 -33.6394 -33.6394
   -33.6345 -33.6345 -33.6329 -33.6329 -33.6299 -33.6299 -33.6236 -33.6236
   -12.5548 -12.5548 -12.2419 -12.2419 -11.7240 -11.7240 -11.4847 -11.4847
   -11.0833 -11.0833 -10.8919 -10.8919 -10.8887 -10.8887 -10.8841 -10.8841
    -0.2926  -0.2926  -0.2219  -0.2219   1.1788   1.1788   1.2361   1.2361
     1.6654   1.6654   1.7783   1.7783   1.9189   1.9189   2.2470   2.2470
     2.3773   2.3773   2.4838   2.4838   2.5515   2.5515   2.9728   2.9728
     3.4555   3.4555   3.6148   3.6148   3.8745   3.8745   3.9789   3.9789
     4.5193   4.5193   4.6143   4.6143   4.6523   4.6523   4.7522   4.7522
     4.9688   4.9688   5.0245   5.0245   5.1031   5.1031   5.3101   5.3101
    12.4994  12.4994  13.2493  13.2493  13.5612  13.5612  13.8647  13.8647
    14.1771  14.1771  14.8425  14.8425  15.1632  15.1632  15.7995  15.7995
    16.6183  16.6184  16.7568

          k =-0.4966 0.0000-0.3914 ( 15436 PWs)   bands (ev):

   -66.9132 -66.9132 -66.9132 -66.9132 -66.8932 -66.8932 -66.8932 -66.8932
   -33.6877 -33.6877 -33.6874 -33.6874 -33.6623 -33.6623 -33.6600 -33.6600
   -33.6560 -33.6560 -33.6535 -33.6535 -33.6445 -33.6445 -33.6443 -33.6443
   -33.6346 -33.6346 -33.6332 -33.6332 -33.6275 -33.6275 -33.6263 -33.6263
   -12.4096 -12.4096 -12.3545 -12.3545 -11.6175 -11.6175 -11.6171 -11.6171
   -11.0733 -11.0733 -10.9875 -10.9875 -10.8638 -10.8638 -10.8632 -10.8632
    -0.1522  -0.1522  -0.0550  -0.0550   1.4093   1.4093   1.6396   1.6396
     1.7310   1.7310   1.8281   1.8281   1.9128   1.9128   2.2186   2.2186
     2.2588   2.2588   2.2691   2.2691   2.7494   2.7494   2.7917   2.7917
     2.9599   2.9599   3.3633   3.3633   3.8683   3.8683   3.9271   3.9271
     4.1944   4.1944   4.5551   4.5551   4.6631   4.6631   4.7976   4.7976
     4.9460   4.9460   4.9695   4.9695   5.1503   5.1503   5.1840   5.1840
    13.3131  13.3131  13.4497  13.4497  14.0386  14.0386  14.0909  14.0909
    14.7443  14.7443  14.9518  14.9518  15.3525  15.3525  15.4413  15.4413
    16.2101  16.2747  16.2759

     the Fermi energy is     6.5022 ev

!    total energy              =   -1988.20509978 Ry

     total all-electron energy =     -7937.300952 Ry
     estimated scf accuracy    <       0.00000006 Ry
     smearing contrib. (-TS)   =      -0.00000000 Ry
     internal energy E=F+TS    =   -1988.20509978 Ry

     The total energy is F=E-TS. E is the sum of the following terms:
     one-electron contribution =    -932.64265457 Ry
     hartree contribution      =     541.55466961 Ry
     xc contribution           =    -288.07186361 Ry
     ewald contribution        =    -893.83868095 Ry
     one-center paw contrib.   =    -415.20657025 Ry

     total magnetization       =     0.00 Bohr mag/cell
     absolute magnetization    =     0.00 Bohr mag/cell

     convergence has been achieved in   9 iterations

     Forces acting on atoms (cartesian axes, Ry/au):

     atom    1 type  1   force =     0.00000000    0.00000000   -0.00000000
     atom    2 type  1   force =    -0.00000000   -0.00000000    0.00000000
     atom    3 type  1   force =    -0.00000000    0.00000000    0.00000000
     atom    4 type  1   force =    -0.00000000   -0.00000000    0.00000000
     atom    5 type  1   force =    -0.00095621   -0.00159787   -0.00000000
     atom    6 type  1   force =     0.00095621    0.00159787   -0.00000000
     atom    7 type  1   force =    -0.00095621    0.00159787    0.00000000
     atom    8 type  1   force =     0.00095621   -0.00159787    0.00000000
     atom    9 type  2   force =    -0.00069798   -0.00220808    0.00000000
     atom   10 type  2   force =     0.00069798    0.00220808    0.00000000
     atom   11 type  2   force =    -0.00069798    0.00220808   -0.00000000
     atom   12 type  2   force =     0.00069798   -0.00220808   -0.00000000
     atom   13 type  3   force =     0.00261800    0.00771259   -0.00000000
     atom   14 type  3   force =    -0.00261800   -0.00771259   -0.00000000
     atom   15 type  3   force =     0.00261800   -0.00771259    0.00000000
     atom   16 type  3   force =    -0.00261800    0.00771259    0.00000000
     atom   17 type  3   force =    -0.00421546   -0.00172190   -0.00000000
     atom   18 type  3   force =     0.00421546    0.00172190   -0.00000000
     atom   19 type  3   force =    -0.00421546    0.00172190   -0.00000000
     atom   20 type  3   force =     0.00421546   -0.00172190   -0.00000000
     atom   21 type  3   force =    -0.00323924   -0.00237797    0.00306125
     atom   22 type  3   force =     0.00323924    0.00237797   -0.00306125
     atom   23 type  3   force =    -0.00323924    0.00237797   -0.00306125
     atom   24 type  3   force =     0.00323924   -0.00237797    0.00306125
     atom   25 type  3   force =     0.00323924    0.00237797    0.00306125
     atom   26 type  3   force =    -0.00323924   -0.00237797   -0.00306125
     atom   27 type  3   force =     0.00323924   -0.00237797   -0.00306125
     atom   28 type  3   force =    -0.00323924    0.00237797    0.00306125

     Total force =     0.024244     Total SCF correction =     0.000337


     Computing stress (Cartesian axis) and pressure

          total   stress  (Ry/bohr**3)                   (kbar)     P=       -1.98
   0.00001207   0.00000000   0.00000000            1.78        0.00        0.00
   0.00000000  -0.00000619   0.00000000            0.00       -0.91        0.00
   0.00000000   0.00000000  -0.00004620            0.00        0.00       -6.80

     Energy error            =      1.4E-03
     Gradient error          =      7.7E-03
     Cell gradient error     =      4.6E-05


     number of scf cycles    =   6
     number of bfgs steps    =   5

     enthalpy old            =   -1988.2037243000 Ry
     enthalpy new            =   -1988.2050997815 Ry

     CASE: enthalpy_new < enthalpy_old

     new trust radius        =       0.0228706999 bohr
     new conv_thr            =       0.0000000771 Ry

     new unit-cell volume =   2015.97701 a.u.^3 (   298.73697 Ang^3 )
     density =      3.12814 g/cm^3

CELL_PARAMETERS (angstrom)
   4.788884340   0.000000000   0.000000000
   0.000000000  10.297656485   0.000000000
   0.000000000   0.000000000   6.057818060

ATOMIC_POSITIONS (angstrom)
Mg            0.0000000000        0.0000000000       -0.0000000000
Mg            2.3944421702        5.1488282423        0.0000000000
Mg           -0.0000000000        0.0000000000        3.0289090301
Mg            2.3944421702        5.1488282423        3.0289090301
Mg            0.0592097951        2.8526431061        4.5433635452
Mg            4.7296745454        7.4450133784        1.5144545151
Mg            2.4536519653        2.2961851362        1.5144545151
Mg            2.3352323751        8.0014713483        4.5433635452
Si            0.3621743042        4.1987022863        1.5144545151
Si            4.4267100363        6.0989541982        4.5433635452
Si            2.7566164744        0.9501259559        4.5433635452
Si            2.0322678661        9.3475305286        1.5144545151
O             1.1240537238        0.9259765978        4.5433635452
O             3.6648306166        9.3716798867        1.5144545151
O             3.5184958941        4.2228516445        1.5144545151
O             1.2703884464        6.0748048401        4.5433635452
O             1.3328389914        0.5681077069        1.5144545151
O             3.4560453490        9.7295487776        4.5433635452
O             3.7272811616        4.5807205353        4.5433635452
O             1.0616031788        5.7169359492        1.5144545151
O             1.0791688849        3.4799651736        2.8235872021
O             3.7097154555        6.8176913110        3.2342308581
O             3.4736110552        1.6688630687        3.2342308581
O             1.3152732853        8.6287934158        2.8235872021
O             3.7097154555        6.8176913110        5.8524962322
O             1.0791688849        3.4799651736        0.2053218280
O             1.3152732853        8.6287934158        0.2053218280
O             3.4736110552        1.6688630687        5.8524962322



     Writing output data file ./out/oliv.save/
     NEW-OLD atomic charge density approx. for the potential

     Check: negative core charge=   -0.000009
     extrapolated charge  191.52388, renormalised to  192.00000
     Generating pointlists ...

     total cpu time spent up to now is     5064.8 secs

     Self-consistent Calculation

     iteration #  1     ecut=    60.00 Ry     beta= 0.30
     Davidson diagonalization with overlap
     ethr =  1.00E-06,  avg # of iterations =  8.5

     total cpu time spent up to now is     5153.5 secs

     total energy              =   -1988.20244254 Ry
     estimated scf accuracy    <       0.00322614 Ry

     total magnetization       =     0.00 Bohr mag/cell
     absolute magnetization    =     0.00 Bohr mag/cell

     iteration #  2     ecut=    60.00 Ry     beta= 0.30
     Davidson diagonalization with overlap
     ethr =  1.68E-06,  avg # of iterations =  6.8

     total cpu time spent up to now is     5206.7 secs

     total energy              =   -1988.20631223 Ry
     estimated scf accuracy    <       0.00172085 Ry

     total magnetization       =    -0.00 Bohr mag/cell
     absolute magnetization    =     0.00 Bohr mag/cell

     iteration #  3     ecut=    60.00 Ry     beta= 0.30
     Davidson diagonalization with overlap
     ethr =  8.96E-07,  avg # of iterations =  2.0

     total cpu time spent up to now is     5243.2 secs

     total energy              =   -1988.20583029 Ry
     estimated scf accuracy    <       0.00089860 Ry

     total magnetization       =    -0.00 Bohr mag/cell
     absolute magnetization    =     0.00 Bohr mag/cell

     iteration #  4     ecut=    60.00 Ry     beta= 0.30
     Davidson diagonalization with overlap
     ethr =  4.68E-07,  avg # of iterations =  4.0

     total cpu time spent up to now is     5288.3 secs

     total energy              =   -1988.20623484 Ry
     estimated scf accuracy    <       0.00020057 Ry

     total magnetization       =     0.00 Bohr mag/cell
     absolute magnetization    =     0.00 Bohr mag/cell

     iteration #  5     ecut=    60.00 Ry     beta= 0.30
     Davidson diagonalization with overlap
     ethr =  1.04E-07,  avg # of iterations =  2.8

     total cpu time spent up to now is     5314.0 secs

     total energy              =   -1988.20618629 Ry
     estimated scf accuracy    <       0.00009174 Ry

     total magnetization       =    -0.00 Bohr mag/cell
     absolute magnetization    =     0.00 Bohr mag/cell

     iteration #  6     ecut=    60.00 Ry     beta= 0.30
     Davidson diagonalization with overlap
     ethr =  4.78E-08,  avg # of iterations =  5.5

     total cpu time spent up to now is     5347.9 secs

     total energy              =   -1988.20622903 Ry
     estimated scf accuracy    <       0.00022215 Ry

     total magnetization       =    -0.00 Bohr mag/cell
     absolute magnetization    =     0.00 Bohr mag/cell

     iteration #  7     ecut=    60.00 Ry     beta= 0.30
     Davidson diagonalization with overlap
     ethr =  4.78E-08,  avg # of iterations =  2.0

     total cpu time spent up to now is     5373.1 secs

     total energy              =   -1988.20621890 Ry
     estimated scf accuracy    <       0.00005129 Ry

     total magnetization       =    -0.00 Bohr mag/cell
     absolute magnetization    =     0.00 Bohr mag/cell

     iteration #  8     ecut=    60.00 Ry     beta= 0.30
     Davidson diagonalization with overlap
     ethr =  2.67E-08,  avg # of iterations =  4.1

     total cpu time spent up to now is     5410.0 secs

     total energy              =   -1988.20624869 Ry
     estimated scf accuracy    <       0.00000692 Ry

     total magnetization       =     0.00 Bohr mag/cell
     absolute magnetization    =     0.00 Bohr mag/cell

     iteration #  9     ecut=    60.00 Ry     beta= 0.30
     Davidson diagonalization with overlap
     ethr =  3.60E-09,  avg # of iterations =  7.4

     total cpu time spent up to now is     5442.0 secs

     total energy              =   -1988.20624827 Ry
     estimated scf accuracy    <       0.00000582 Ry

     total magnetization       =     0.00 Bohr mag/cell
     absolute magnetization    =     0.00 Bohr mag/cell

     iteration # 10     ecut=    60.00 Ry     beta= 0.30
     Davidson diagonalization with overlap
     ethr =  3.03E-09,  avg # of iterations =  2.0

     total cpu time spent up to now is     5468.1 secs

     total energy              =   -1988.20624815 Ry
     estimated scf accuracy    <       0.00000149 Ry

     total magnetization       =    -0.00 Bohr mag/cell
     absolute magnetization    =     0.00 Bohr mag/cell

     iteration # 11     ecut=    60.00 Ry     beta= 0.30
     Davidson diagonalization with overlap
     ethr =  7.78E-10,  avg # of iterations =  8.2

     Magnetic moment per site:
     atom:    1    charge:    8.1145    magn:    0.0000    constr:    0.0000
     atom:    2    charge:    8.1145    magn:    0.0000    constr:    0.0000
     atom:    3    charge:    8.1145    magn:    0.0000    constr:    0.0000
     atom:    4    charge:    8.1145    magn:    0.0000    constr:    0.0000
     atom:    5    charge:    8.0853    magn:    0.0000    constr:    0.0000
     atom:    6    charge:    8.0853    magn:    0.0000    constr:    0.0000
     atom:    7    charge:    8.0853    magn:    0.0000    constr:    0.0000
     atom:    8    charge:    8.0853    magn:    0.0000    constr:    0.0000
     atom:    9    charge:    0.3890    magn:    0.0000    constr:    0.0000
     atom:   10    charge:    0.3890    magn:    0.0000    constr:    0.0000
     atom:   11    charge:    0.3890    magn:    0.0000    constr:    0.0000
     atom:   12    charge:    0.3890    magn:    0.0000    constr:    0.0000
     atom:   13    charge:    4.0567    magn:   -0.0000    constr:    0.0000
     atom:   14    charge:    4.0567    magn:   -0.0000    constr:    0.0000
     atom:   15    charge:    4.0567    magn:   -0.0000    constr:    0.0000
     atom:   16    charge:    4.0567    magn:   -0.0000    constr:    0.0000
     atom:   17    charge:    4.0544    magn:   -0.0000    constr:    0.0000
     atom:   18    charge:    4.0544    magn:   -0.0000    constr:    0.0000
     atom:   19    charge:    4.0544    magn:   -0.0000    constr:    0.0000
     atom:   20    charge:    4.0544    magn:   -0.0000    constr:    0.0000
     atom:   21    charge:    4.0426    magn:   -0.0000    constr:    0.0000
     atom:   22    charge:    4.0426    magn:   -0.0000    constr:    0.0000
     atom:   23    charge:    4.0426    magn:   -0.0000    constr:    0.0000
     atom:   24    charge:    4.0426    magn:   -0.0000    constr:    0.0000
     atom:   25    charge:    4.0426    magn:   -0.0000    constr:    0.0000
     atom:   26    charge:    4.0426    magn:   -0.0000    constr:    0.0000
     atom:   27    charge:    4.0426    magn:   -0.0000    constr:    0.0000
     atom:   28    charge:    4.0426    magn:   -0.0000    constr:    0.0000

     total cpu time spent up to now is     5508.3 secs

     End of self-consistent calculation

 ------ SPIN UP ------------


          k = 0.0000 0.0000 0.0000 ( 15339 PWs)   bands (ev):

   -66.8754 -66.8754 -66.8731 -66.8731 -66.8615 -66.8614 -66.8614 -66.8614
   -33.6606 -33.6599 -33.6392 -33.6364 -33.6344 -33.6343 -33.6284 -33.6265
   -33.6260 -33.6258 -33.6201 -33.6200 -33.6153 -33.6120 -33.6050 -33.6048
   -33.6046 -33.6046 -33.6025 -33.5999 -33.5839 -33.5828 -33.5806 -33.5803
   -12.9762 -12.7602 -12.4652 -12.3372 -11.3370 -11.2876 -11.1895 -11.1709
   -11.1531 -11.0055 -10.9794 -10.9382 -10.8692 -10.8530 -10.8034 -10.7398
    -0.4740  -0.4199   0.0337   0.1155   0.2998   0.4302   1.0002   1.0226
     1.1771   1.5326   1.5482   1.6719   1.9055   2.2517   2.3836   2.5490
     2.7397   3.0113   3.0922   3.1120   3.1281   3.1637   3.2233   3.3285
     3.4957   3.5623   3.7299   3.7569   3.7666   3.9917   4.0348   4.0437
     4.0612   4.3162   4.3754   4.3805   4.4117   4.4719   4.6693   4.7194
     4.7346   4.8800   4.8973   4.9545   5.0335   5.0548   5.1803   5.5531
    10.2292  12.1836  12.5665  13.8685  14.1133  14.1604  14.3598  14.3709
    14.5303  14.8048  14.8873  15.0763  15.2226  15.5886  15.9355  15.9805
    16.0799  16.4677  16.5573

          k = 0.0000 0.0000-0.3924 ( 15392 PWs)   bands (ev):

   -66.8743 -66.8743 -66.8742 -66.8742 -66.8614 -66.8614 -66.8614 -66.8614
   -33.6418 -33.6418 -33.6415 -33.6415 -33.6360 -33.6360 -33.6349 -33.6349
   -33.6266 -33.6266 -33.6251 -33.6251 -33.6112 -33.6112 -33.6089 -33.6089
   -33.6032 -33.6032 -33.6010 -33.6010 -33.5822 -33.5822 -33.5818 -33.5818
   -12.6849 -12.6849 -12.5903 -12.5903 -11.2466 -11.2466 -11.2429 -11.2429
   -11.1556 -11.1556 -10.9347 -10.9347 -10.8481 -10.8481 -10.7575 -10.7575
    -0.1368  -0.1368  -0.1265  -0.1265   0.8187   0.8187   0.8742   0.8742
     1.4651   1.4651   1.8688   1.8688   2.1497   2.1497   2.4645   2.4645
     2.7212   2.7212   2.8791   2.8791   3.1880   3.1880   3.3140   3.3140
     3.3280   3.3280   3.5021   3.5021   3.8016   3.8016   3.8758   3.8758
     4.1824   4.1824   4.3237   4.3237   4.4133   4.4133   4.5347   4.5347
     4.7599   4.7599   4.7916   4.7916   5.0753   5.0753   5.1946   5.1946
    12.0411  12.0411  13.1640  13.1640  13.6560  13.6560  14.7484  14.7484
    15.0241  15.0241  15.8355  15.8355  16.0126  16.0127  16.0761  16.0761
    16.2091  16.2091  16.5257

          k =-0.4964 0.0000 0.0000 ( 15374 PWs)   bands (ev):

   -66.8754 -66.8754 -66.8731 -66.8731 -66.8614 -66.8614 -66.8614 -66.8614
   -33.6602 -33.6602 -33.6376 -33.6376 -33.6352 -33.6352 -33.6267 -33.6267
   -33.6263 -33.6263 -33.6200 -33.6200 -33.6142 -33.6142 -33.6047 -33.6047
   -33.6044 -33.6044 -33.6012 -33.6012 -33.5821 -33.5821 -33.5817 -33.5817
   -12.5356 -12.5356 -12.2214 -12.2214 -11.6984 -11.6984 -11.4568 -11.4568
   -11.0654 -11.0654 -10.8750 -10.8750 -10.8683 -10.8683 -10.8634 -10.8634
    -0.2747  -0.2747  -0.2047  -0.2047   1.1988   1.1988   1.2523   1.2523
     1.6884   1.6884   1.7972   1.7972   1.9417   1.9417   2.2675   2.2675
     2.3977   2.3977   2.5032   2.5032   2.5714   2.5714   2.9972   2.9972
     3.4808   3.4808   3.6412   3.6412   3.9012   3.9012   4.0048   4.0048
     4.5337   4.5337   4.6399   4.6399   4.6718   4.6718   4.7881   4.7881
     4.9917   4.9917   5.0420   5.0420   5.1263   5.1263   5.3316   5.3316
    12.5570  12.5570  13.2919  13.2919  13.6135  13.6135  13.8814  13.8814
    14.2172  14.2172  14.8682  14.8682  15.2040  15.2040  15.8408  15.8408
    16.6515  16.6531  16.7833

          k =-0.4964 0.0000-0.3924 ( 15436 PWs)   bands (ev):

   -66.8743 -66.8743 -66.8743 -66.8743 -66.8614 -66.8614 -66.8614 -66.8614
   -33.6417 -33.6417 -33.6416 -33.6416 -33.6367 -33.6367 -33.6346 -33.6346
   -33.6265 -33.6265 -33.6251 -33.6251 -33.6119 -33.6119 -33.6086 -33.6086
   -33.6033 -33.6033 -33.6008 -33.6008 -33.5820 -33.5820 -33.5819 -33.5819
   -12.3891 -12.3891 -12.3336 -12.3336 -11.5909 -11.5909 -11.5903 -11.5903
   -11.0573 -11.0573 -10.9688 -10.9688 -10.8458 -10.8458 -10.8426 -10.8426
    -0.1318  -0.1318  -0.0341  -0.0341   1.4325   1.4325   1.6549   1.6549
     1.7458   1.7458   1.8520   1.8520   1.9305   1.9305   2.2377   2.2377
     2.2890   2.2890   2.2916   2.2916   2.7726   2.7726   2.8186   2.8186
     2.9854   2.9854   3.3890   3.3890   3.8907   3.8907   3.9484   3.9484
     4.2211   4.2211   4.5730   4.5730   4.6850   4.6850   4.8132   4.8132
     4.9679   4.9679   4.9932   4.9932   5.1682   5.1682   5.2031   5.2031
    13.3821  13.3821  13.4938  13.4938  14.0949  14.0949  14.0975  14.0975
    14.7699  14.7699  15.0132  15.0132  15.3679  15.3679  15.4751  15.4751
    16.2474  16.3262  16.3274

 ------ SPIN DOWN ----------


          k = 0.0000 0.0000 0.0000 ( 15339 PWs)   bands (ev):

   -66.8754 -66.8754 -66.8731 -66.8731 -66.8615 -66.8614 -66.8614 -66.8614
   -33.6605 -33.6599 -33.6392 -33.6364 -33.6344 -33.6343 -33.6284 -33.6265
   -33.6260 -33.6258 -33.6201 -33.6200 -33.6153 -33.6120 -33.6050 -33.6048
   -33.6046 -33.6046 -33.6025 -33.5999 -33.5839 -33.5828 -33.5806 -33.5803
   -12.9762 -12.7602 -12.4652 -12.3372 -11.3370 -11.2876 -11.1895 -11.1709
   -11.1531 -11.0055 -10.9794 -10.9382 -10.8691 -10.8530 -10.8033 -10.7398
    -0.4740  -0.4199   0.0337   0.1155   0.2998   0.4302   1.0002   1.0226
     1.1771   1.5326   1.5482   1.6719   1.9055   2.2517   2.3836   2.5490
     2.7397   3.0114   3.0922   3.1120   3.1281   3.1637   3.2233   3.3285
     3.4957   3.5623   3.7299   3.7569   3.7666   3.9917   4.0348   4.0437
     4.0612   4.3162   4.3754   4.3805   4.4117   4.4719   4.6693   4.7194
     4.7346   4.8800   4.8973   4.9545   5.0335   5.0548   5.1804   5.5531
    10.2292  12.1836  12.5665  13.8685  14.1132  14.1604  14.3598  14.3709
    14.5303  14.8048  14.8873  15.0763  15.2226  15.5886  15.9355  15.9805
    16.0799  16.4677  16.5574

          k = 0.0000 0.0000-0.3924 ( 15392 PWs)   bands (ev):

   -66.8743 -66.8743 -66.8742 -66.8742 -66.8614 -66.8614 -66.8614 -66.8614
   -33.6418 -33.6418 -33.6415 -33.6415 -33.6360 -33.6360 -33.6349 -33.6349
   -33.6266 -33.6266 -33.6251 -33.6251 -33.6112 -33.6112 -33.6089 -33.6089
   -33.6032 -33.6032 -33.6010 -33.6010 -33.5822 -33.5822 -33.5818 -33.5818
   -12.6849 -12.6849 -12.5903 -12.5903 -11.2466 -11.2466 -11.2429 -11.2429
   -11.1556 -11.1556 -10.9347 -10.9347 -10.8481 -10.8481 -10.7575 -10.7575
    -0.1368  -0.1368  -0.1265  -0.1265   0.8187   0.8187   0.8742   0.8742
     1.4651   1.4651   1.8688   1.8688   2.1497   2.1497   2.4645   2.4645
     2.7212   2.7212   2.8791   2.8791   3.1880   3.1880   3.3140   3.3140
     3.3280   3.3280   3.5021   3.5021   3.8016   3.8016   3.8758   3.8758
     4.1824   4.1824   4.3237   4.3237   4.4133   4.4133   4.5347   4.5347
     4.7599   4.7599   4.7916   4.7916   5.0754   5.0754   5.1947   5.1947
    12.0411  12.0411  13.1640  13.1640  13.6560  13.6560  14.7484  14.7484
    15.0241  15.0241  15.8355  15.8355  16.0126  16.0127  16.0761  16.0761
    16.2091  16.2091  16.5257

          k =-0.4964 0.0000 0.0000 ( 15374 PWs)   bands (ev):

   -66.8754 -66.8754 -66.8731 -66.8731 -66.8614 -66.8614 -66.8614 -66.8614
   -33.6602 -33.6602 -33.6376 -33.6376 -33.6352 -33.6352 -33.6267 -33.6267
   -33.6263 -33.6263 -33.6200 -33.6200 -33.6142 -33.6142 -33.6047 -33.6047
   -33.6044 -33.6044 -33.6012 -33.6012 -33.5821 -33.5821 -33.5817 -33.5817
   -12.5356 -12.5356 -12.2214 -12.2214 -11.6984 -11.6984 -11.4568 -11.4568
   -11.0653 -11.0653 -10.8750 -10.8750 -10.8683 -10.8683 -10.8634 -10.8634
    -0.2747  -0.2747  -0.2047  -0.2047   1.1988   1.1988   1.2523   1.2523
     1.6884   1.6884   1.7972   1.7972   1.9417   1.9417   2.2675   2.2675
     2.3977   2.3977   2.5032   2.5032   2.5714   2.5714   2.9972   2.9972
     3.4808   3.4808   3.6412   3.6412   3.9012   3.9012   4.0048   4.0048
     4.5337   4.5337   4.6399   4.6399   4.6718   4.6718   4.7881   4.7881
     4.9917   4.9917   5.0420   5.0420   5.1263   5.1263   5.3316   5.3316
    12.5570  12.5570  13.2919  13.2919  13.6135  13.6135  13.8814  13.8814
    14.2172  14.2172  14.8682  14.8682  15.2040  15.2040  15.8408  15.8408
    16.6515  16.6524  16.7833

          k =-0.4964 0.0000-0.3924 ( 15436 PWs)   bands (ev):

   -66.8743 -66.8743 -66.8743 -66.8743 -66.8614 -66.8614 -66.8614 -66.8614
   -33.6417 -33.6417 -33.6416 -33.6416 -33.6367 -33.6367 -33.6346 -33.6346
   -33.6265 -33.6265 -33.6251 -33.6251 -33.6119 -33.6119 -33.6086 -33.6086
   -33.6033 -33.6033 -33.6008 -33.6008 -33.5820 -33.5820 -33.5819 -33.5819
   -12.3891 -12.3891 -12.3336 -12.3336 -11.5909 -11.5909 -11.5903 -11.5903
   -11.0572 -11.0572 -10.9688 -10.9688 -10.8458 -10.8458 -10.8426 -10.8426
    -0.1318  -0.1318  -0.0341  -0.0341   1.4325   1.4325   1.6549   1.6549
     1.7458   1.7458   1.8520   1.8520   1.9305   1.9305   2.2377   2.2377
     2.2890   2.2890   2.2916   2.2916   2.7726   2.7726   2.8186   2.8186
     2.9854   2.9854   3.3890   3.3890   3.8907   3.8907   3.9484   3.9484
     4.2211   4.2211   4.5730   4.5730   4.6850   4.6850   4.8132   4.8132
     4.9679   4.9679   4.9932   4.9932   5.1682   5.1682   5.2031   5.2031
    13.3821  13.3821  13.4938  13.4938  14.0949  14.0949  14.0975  14.0975
    14.7699  14.7699  15.0132  15.0132  15.3679  15.3679  15.4751  15.4751
    16.2474  16.3256  16.3275

     the Fermi energy is     6.5300 ev

!    total energy              =   -1988.20624879 Ry

     total all-electron energy =     -7937.302101 Ry
     estimated scf accuracy    <       0.00000001 Ry
     smearing contrib. (-TS)   =      -0.00000000 Ry
     internal energy E=F+TS    =   -1988.20624879 Ry

     The total energy is F=E-TS. E is the sum of the following terms:
     one-electron contribution =    -930.85103073 Ry
     hartree contribution      =     540.85513855 Ry
     xc contribution           =    -288.09246942 Ry
     ewald contribution        =    -894.91096254 Ry
     one-center paw contrib.   =    -415.20692464 Ry

     total magnetization       =    -0.00 Bohr mag/cell
     absolute magnetization    =     0.00 Bohr mag/cell

     convergence has been achieved in  11 iterations

     Forces acting on atoms (cartesian axes, Ry/au):

     atom    1 type  1   force =     0.00000000    0.00000000   -0.00000000
     atom    2 type  1   force =     0.00000000    0.00000000   -0.00000000
     atom    3 type  1   force =     0.00000000    0.00000000   -0.00000000
     atom    4 type  1   force =    -0.00000000   -0.00000000    0.00000000
     atom    5 type  1   force =    -0.00142827   -0.00107890   -0.00000000
     atom    6 type  1   force =     0.00142827    0.00107890   -0.00000000
     atom    7 type  1   force =    -0.00142827    0.00107890    0.00000000
     atom    8 type  1   force =     0.00142827   -0.00107890    0.00000000
     atom    9 type  2   force =    -0.00196929   -0.00278558    0.00000000
     atom   10 type  2   force =     0.00196929    0.00278558    0.00000000
     atom   11 type  2   force =    -0.00196929    0.00278558    0.00000000
     atom   12 type  2   force =     0.00196929   -0.00278558    0.00000000
     atom   13 type  3   force =     0.00101874    0.00468350    0.00000000
     atom   14 type  3   force =    -0.00101874   -0.00468350    0.00000000
     atom   15 type  3   force =     0.00101874   -0.00468350    0.00000000
     atom   16 type  3   force =    -0.00101874    0.00468350    0.00000000
     atom   17 type  3   force =    -0.00258688   -0.00313122    0.00000000
     atom   18 type  3   force =     0.00258688    0.00313122    0.00000000
     atom   19 type  3   force =    -0.00258688    0.00313122   -0.00000000
     atom   20 type  3   force =     0.00258688   -0.00313122   -0.00000000
     atom   21 type  3   force =    -0.00142012   -0.00073172    0.00186052
     atom   22 type  3   force =     0.00142012    0.00073172   -0.00186052
     atom   23 type  3   force =    -0.00142012    0.00073172   -0.00186052
     atom   24 type  3   force =     0.00142012   -0.00073172    0.00186052
     atom   25 type  3   force =     0.00142012    0.00073172    0.00186052
     atom   26 type  3   force =    -0.00142012   -0.00073172   -0.00186052
     atom   27 type  3   force =     0.00142012   -0.00073172   -0.00186052
     atom   28 type  3   force =    -0.00142012    0.00073172    0.00186052

     Total force =     0.016290     Total SCF correction =     0.000247


     Computing stress (Cartesian axis) and pressure

          total   stress  (Ry/bohr**3)                   (kbar)     P=       -0.17
   0.00001825   0.00000000   0.00000000            2.68        0.00        0.00
   0.00000000  -0.00000657   0.00000000            0.00       -0.97        0.00
   0.00000000   0.00000000  -0.00001517            0.00        0.00       -2.23

     Energy error            =      1.1E-03
     Gradient error          =      4.7E-03
     Cell gradient error     =      1.8E-05


     number of scf cycles    =   7
     number of bfgs steps    =   6

     enthalpy old            =   -1988.2050997815 Ry
     enthalpy new            =   -1988.2062487878 Ry

     CASE: enthalpy_new < enthalpy_old

     new trust radius        =       0.0260139703 bohr
     new conv_thr            =       0.0000000468 Ry

     new unit-cell volume =   2011.36724 a.u.^3 (   298.05387 Ang^3 )
     density =      3.13531 g/cm^3

CELL_PARAMETERS (angstrom)
   4.794810863   0.000000000   0.000000000
   0.000000000  10.291223249   0.000000000
   0.000000000   0.000000000   6.040269153

ATOMIC_POSITIONS (angstrom)
Mg            0.0000000000        0.0000000000       -0.0000000000
Mg            2.3974054316        5.1456116243       -0.0000000000
Mg           -0.0000000000        0.0000000000        3.0201345763
Mg            2.3974054316        5.1456116243        3.0201345763
Mg            0.0569428923        2.8485524652        4.5302018645
Mg            4.7378679710        7.4426707835        1.5100672882
Mg            2.4543483239        2.2970591591        1.5100672882
Mg            2.3404625394        7.9941640895        4.5302018645
Si            0.3625149194        4.1923138551        1.5100672882
Si            4.4322959439        6.0989093936        4.5302018645
Si            2.7599203511        0.9532977692        4.5302018645
Si            2.0348905122        9.3379254795        1.5100672882
O             1.1275466242        0.9372974219        4.5302018645
O             3.6672642391        9.3539258268        1.5100672882
O             3.5249520558        4.2083142025        1.5100672882
O             1.2698588075        6.0829090462        4.5302018645
O             1.3283859620        0.5639767025        1.5100672882
O             3.4664249013        9.7272465462        4.5302018645
O             3.7257913937        4.5816349218        4.5302018645
O             1.0690194696        5.7095883268        1.5100672882
O             1.0759266611        3.4741630891        2.8207815246
O             3.7188842022        6.8170601596        3.2194876280
O             3.4733320928        1.6714485352        3.2194876280
O             1.3214787705        8.6197747134        2.8207815246
O             3.7188842022        6.8170601596        5.8409161010
O             1.0759266611        3.4741630891        0.1993530517
O             1.3214787705        8.6197747134        0.1993530517
O             3.4733320928        1.6714485352        5.8409161010



     Writing output data file ./out/oliv.save/
     NEW-OLD atomic charge density approx. for the potential

     Check: negative core charge=   -0.000009
     extrapolated charge  191.55999, renormalised to  192.00000
     Generating pointlists ...

     total cpu time spent up to now is     5543.7 secs

     Self-consistent Calculation

     iteration #  1     ecut=    60.00 Ry     beta= 0.30
     Davidson diagonalization with overlap
     ethr =  1.00E-06,  avg # of iterations =  9.5

     total cpu time spent up to now is     5634.5 secs

     total energy              =   -1988.20364751 Ry
     estimated scf accuracy    <       0.00311003 Ry

     total magnetization       =     0.00 Bohr mag/cell
     absolute magnetization    =     0.00 Bohr mag/cell

     iteration #  2     ecut=    60.00 Ry     beta= 0.30
     Davidson diagonalization with overlap
     ethr =  1.62E-06,  avg # of iterations =  5.6

     total cpu time spent up to now is     5672.2 secs

     total energy              =   -1988.20690448 Ry
     estimated scf accuracy    <       0.00130038 Ry

     total magnetization       =     0.00 Bohr mag/cell
     absolute magnetization    =     0.00 Bohr mag/cell

     iteration #  3     ecut=    60.00 Ry     beta= 0.30
     Davidson diagonalization with overlap
     ethr =  6.77E-07,  avg # of iterations =  4.0

     total cpu time spent up to now is     5698.2 secs

     total energy              =   -1988.20656872 Ry
     estimated scf accuracy    <       0.00075600 Ry

     total magnetization       =    -0.00 Bohr mag/cell
     absolute magnetization    =     0.00 Bohr mag/cell

     iteration #  4     ecut=    60.00 Ry     beta= 0.30
     Davidson diagonalization with overlap
     ethr =  3.94E-07,  avg # of iterations =  4.0

     total cpu time spent up to now is     5736.3 secs

     total energy              =   -1988.20698428 Ry
     estimated scf accuracy    <       0.00033903 Ry

     total magnetization       =    -0.00 Bohr mag/cell
     absolute magnetization    =     0.00 Bohr mag/cell

     iteration #  5     ecut=    60.00 Ry     beta= 0.30
     Davidson diagonalization with overlap
     ethr =  1.77E-07,  avg # of iterations =  1.6

     total cpu time spent up to now is     5756.6 secs

     total energy              =   -1988.20682860 Ry
     estimated scf accuracy    <       0.00022543 Ry

     total magnetization       =     0.00 Bohr mag/cell
     absolute magnetization    =     0.00 Bohr mag/cell

     iteration #  6     ecut=    60.00 Ry     beta= 0.30
     Davidson diagonalization with overlap
     ethr =  1.17E-07,  avg # of iterations =  4.0

     total cpu time spent up to now is     5792.7 secs

     total energy              =   -1988.20693590 Ry
     estimated scf accuracy    <       0.00016126 Ry

     total magnetization       =    -0.00 Bohr mag/cell
     absolute magnetization    =     0.00 Bohr mag/cell

     iteration #  7     ecut=    60.00 Ry     beta= 0.30
     Davidson diagonalization with overlap
     ethr =  8.40E-08,  avg # of iterations =  1.5

     total cpu time spent up to now is     5813.6 secs

     total energy              =   -1988.20692201 Ry
     estimated scf accuracy    <       0.00004776 Ry

     total magnetization       =     0.00 Bohr mag/cell
     absolute magnetization    =     0.00 Bohr mag/cell

     iteration #  8     ecut=    60.00 Ry     beta= 0.30
     Davidson diagonalization with overlap
     ethr =  2.49E-08,  avg # of iterations =  5.5

     total cpu time spent up to now is     5848.6 secs

     total energy              =   -1988.20694198 Ry
     estimated scf accuracy    <       0.00000090 Ry

     total magnetization       =    -0.00 Bohr mag/cell
     absolute magnetization    =     0.00 Bohr mag/cell

     iteration #  9     ecut=    60.00 Ry     beta= 0.30
     Davidson diagonalization with overlap
     ethr =  4.70E-10,  avg # of iterations = 12.0

     total cpu time spent up to now is     5915.3 secs

     total energy              =   -1988.20694500 Ry
     estimated scf accuracy    <       0.00000098 Ry

     total magnetization       =    -0.00 Bohr mag/cell
     absolute magnetization    =     0.00 Bohr mag/cell

     iteration # 10     ecut=    60.00 Ry     beta= 0.30
     Davidson diagonalization with overlap
     ethr =  4.70E-10,  avg # of iterations =  1.5

     total cpu time spent up to now is     5936.3 secs

     total energy              =   -1988.20694469 Ry
     estimated scf accuracy    <       0.00000056 Ry

     total magnetization       =     0.00 Bohr mag/cell
     absolute magnetization    =     0.00 Bohr mag/cell

     iteration # 11     ecut=    60.00 Ry     beta= 0.30
     Davidson diagonalization with overlap
     ethr =  2.92E-10,  avg # of iterations =  3.4

     Magnetic moment per site:
     atom:    1    charge:    8.1146    magn:   -0.0000    constr:    0.0000
     atom:    2    charge:    8.1146    magn:   -0.0000    constr:    0.0000
     atom:    3    charge:    8.1146    magn:   -0.0000    constr:    0.0000
     atom:    4    charge:    8.1146    magn:   -0.0000    constr:    0.0000
     atom:    5    charge:    8.0870    magn:    0.0000    constr:    0.0000
     atom:    6    charge:    8.0870    magn:    0.0000    constr:    0.0000
     atom:    7    charge:    8.0870    magn:    0.0000    constr:    0.0000
     atom:    8    charge:    8.0870    magn:    0.0000    constr:    0.0000
     atom:    9    charge:    0.3891    magn:   -0.0000    constr:    0.0000
     atom:   10    charge:    0.3891    magn:   -0.0000    constr:    0.0000
     atom:   11    charge:    0.3891    magn:   -0.0000    constr:    0.0000
     atom:   12    charge:    0.3891    magn:   -0.0000    constr:    0.0000
     atom:   13    charge:    4.0572    magn:   -0.0000    constr:    0.0000
     atom:   14    charge:    4.0572    magn:   -0.0000    constr:    0.0000
     atom:   15    charge:    4.0572    magn:   -0.0000    constr:    0.0000
     atom:   16    charge:    4.0572    magn:   -0.0000    constr:    0.0000
     atom:   17    charge:    4.0538    magn:    0.0000    constr:    0.0000
     atom:   18    charge:    4.0538    magn:    0.0000    constr:    0.0000
     atom:   19    charge:    4.0538    magn:    0.0000    constr:    0.0000
     atom:   20    charge:    4.0538    magn:    0.0000    constr:    0.0000
     atom:   21    charge:    4.0431    magn:    0.0000    constr:    0.0000
     atom:   22    charge:    4.0431    magn:    0.0000    constr:    0.0000
     atom:   23    charge:    4.0431    magn:    0.0000    constr:    0.0000
     atom:   24    charge:    4.0431    magn:    0.0000    constr:    0.0000
     atom:   25    charge:    4.0431    magn:    0.0000    constr:    0.0000
     atom:   26    charge:    4.0431    magn:    0.0000    constr:    0.0000
     atom:   27    charge:    4.0431    magn:    0.0000    constr:    0.0000
     atom:   28    charge:    4.0431    magn:    0.0000    constr:    0.0000

     total cpu time spent up to now is     5967.1 secs

     End of self-consistent calculation

 ------ SPIN UP ------------


          k = 0.0000 0.0000 0.0000 ( 15339 PWs)   bands (ev):

   -66.8591 -66.8591 -66.8567 -66.8567 -66.8101 -66.8101 -66.8100 -66.8100
   -33.6446 -33.6442 -33.6143 -33.6132 -33.6106 -33.6103 -33.6034 -33.6034
   -33.5951 -33.5946 -33.5873 -33.5872 -33.5852 -33.5837 -33.5830 -33.5823
   -33.5543 -33.5539 -33.5531 -33.5527 -33.5326 -33.5321 -33.5292 -33.5290
   -12.9561 -12.7351 -12.4446 -12.3100 -11.3196 -11.2714 -11.1699 -11.1426
   -11.1297 -10.9878 -10.9562 -10.9213 -10.8488 -10.8313 -10.7839 -10.7212
    -0.4550  -0.4045   0.0550   0.1311   0.3106   0.4552   1.0096   1.0450
     1.1945   1.5546   1.5749   1.6955   1.9262   2.2694   2.4085   2.5647
     2.7524   3.0263   3.1173   3.1362   3.1530   3.1918   3.2436   3.3553
     3.5019   3.5939   3.7533   3.7631   3.7782   4.0175   4.0526   4.0635
     4.0734   4.3325   4.3837   4.4139   4.4368   4.5069   4.6968   4.7343
     4.7583   4.9134   4.9160   4.9773   5.0656   5.0877   5.2063   5.5741
    10.2678  12.2071  12.6281  13.9345  14.1547  14.1669  14.3601  14.3845
    14.6255  14.8250  14.9454  15.0997  15.2942  15.6045  15.9526  16.0242
    16.1370  16.4839  16.5877

          k = 0.0000 0.0000-0.3935 ( 15392 PWs)   bands (ev):

   -66.8579 -66.8579 -66.8579 -66.8579 -66.8100 -66.8100 -66.8100 -66.8100
   -33.6249 -33.6249 -33.6247 -33.6247 -33.6116 -33.6116 -33.6111 -33.6111
   -33.5913 -33.5913 -33.5912 -33.5912 -33.5835 -33.5835 -33.5833 -33.5833
   -33.5536 -33.5536 -33.5533 -33.5533 -33.5309 -33.5309 -33.5307 -33.5307
   -12.6615 -12.6615 -12.5658 -12.5658 -11.2313 -11.2313 -11.2228 -11.2228
   -11.1317 -11.1317 -10.9142 -10.9142 -10.8286 -10.8286 -10.7380 -10.7380
    -0.1158  -0.1158  -0.1053  -0.1053   0.8412   0.8412   0.8951   0.8951
     1.4845   1.4845   1.8892   1.8892   2.1692   2.1692   2.4868   2.4868
     2.7433   2.7433   2.8883   2.8883   3.2138   3.2138   3.3326   3.3326
     3.3451   3.3451   3.5268   3.5268   3.8194   3.8194   3.9042   3.9042
     4.1959   4.1959   4.3369   4.3369   4.4370   4.4370   4.5685   4.5685
     4.7881   4.7881   4.8071   4.8071   5.0953   5.0953   5.2134   5.2134
    12.0844  12.0844  13.2081  13.2081  13.6969  13.6969  14.7916  14.7916
    15.0459  15.0459  15.8418  15.8418  16.0480  16.0481  16.1343  16.1343
    16.2389  16.2389  16.5371

          k =-0.4958 0.0000 0.0000 ( 15374 PWs)   bands (ev):

   -66.8591 -66.8591 -66.8567 -66.8567 -66.8100 -66.8100 -66.8100 -66.8100
   -33.6444 -33.6444 -33.6139 -33.6139 -33.6105 -33.6105 -33.6034 -33.6034
   -33.5951 -33.5951 -33.5873 -33.5873 -33.5840 -33.5840 -33.5832 -33.5832
   -33.5540 -33.5540 -33.5531 -33.5531 -33.5309 -33.5309 -33.5307 -33.5307
   -12.5162 -12.5162 -12.2016 -12.2016 -11.6748 -11.6748 -11.4308 -11.4308
   -11.0423 -11.0423 -10.8540 -10.8540 -10.8505 -10.8505 -10.8452 -10.8452
    -0.2554  -0.2554  -0.1888  -0.1888   1.2201   1.2201   1.2675   1.2675
     1.7115   1.7115   1.8105   1.8105   1.9641   1.9641   2.2902   2.2902
     2.4144   2.4144   2.5206   2.5206   2.5905   2.5905   3.0174   3.0174
     3.5077   3.5077   3.6675   3.6675   3.9243   3.9243   4.0334   4.0334
     4.5425   4.5425   4.6614   4.6614   4.6925   4.6925   4.8256   4.8256
     5.0157   5.0157   5.0610   5.0610   5.1468   5.1468   5.3532   5.3532
    12.6068  12.6068  13.3258  13.3258  13.6598  13.6598  13.8961  13.8961
    14.2542  14.2542  14.8881  14.8881  15.2328  15.2328  15.8756  15.8756
    16.6764  16.6783  16.8116

          k =-0.4958 0.0000-0.3935 ( 15436 PWs)   bands (ev):

   -66.8579 -66.8579 -66.8579 -66.8579 -66.8100 -66.8100 -66.8100 -66.8100
   -33.6249 -33.6249 -33.6247 -33.6247 -33.6119 -33.6119 -33.6110 -33.6110
   -33.5916 -33.5916 -33.5910 -33.5910 -33.5839 -33.5839 -33.5831 -33.5831
   -33.5537 -33.5537 -33.5533 -33.5533 -33.5308 -33.5308 -33.5307 -33.5307
   -12.3684 -12.3684 -12.3128 -12.3128 -11.5665 -11.5665 -11.5655 -11.5655
   -11.0377 -11.0377 -10.9493 -10.9493 -10.8270 -10.8270 -10.8234 -10.8234
    -0.1094  -0.1094  -0.0128  -0.0128   1.4535   1.4535   1.6669   1.6669
     1.7600   1.7600   1.8757   1.8757   1.9444   1.9444   2.2533   2.2533
     2.3107   2.3107   2.3218   2.3218   2.7958   2.7958   2.8437   2.8437
     3.0171   3.0171   3.4125   3.4125   3.9126   3.9126   3.9679   3.9679
     4.2493   4.2493   4.5902   4.5902   4.7043   4.7043   4.8278   4.8278
     4.9892   4.9892   5.0135   5.0135   5.1838   5.1838   5.2223   5.2223
    13.4432  13.4432  13.5268  13.5268  14.0937  14.0937  14.1483  14.1483
    14.7926  14.7926  15.0659  15.0659  15.3795  15.3795  15.4960  15.4960
    16.2824  16.3782  16.3806

 ------ SPIN DOWN ----------


          k = 0.0000 0.0000 0.0000 ( 15339 PWs)   bands (ev):

   -66.8591 -66.8591 -66.8567 -66.8567 -66.8101 -66.8101 -66.8100 -66.8100
   -33.6446 -33.6442 -33.6143 -33.6132 -33.6106 -33.6103 -33.6034 -33.6034
   -33.5951 -33.5946 -33.5873 -33.5872 -33.5852 -33.5837 -33.5830 -33.5823
   -33.5543 -33.5539 -33.5531 -33.5527 -33.5326 -33.5321 -33.5292 -33.5290
   -12.9561 -12.7351 -12.4446 -12.3100 -11.3196 -11.2714 -11.1700 -11.1426
   -11.1298 -10.9878 -10.9562 -10.9213 -10.8488 -10.8313 -10.7839 -10.7212
    -0.4550  -0.4045   0.0550   0.1311   0.3106   0.4552   1.0096   1.0450
     1.1945   1.5546   1.5749   1.6955   1.9262   2.2694   2.4085   2.5647
     2.7524   3.0263   3.1173   3.1362   3.1530   3.1918   3.2436   3.3553
     3.5019   3.5939   3.7533   3.7631   3.7782   4.0175   4.0526   4.0635
     4.0734   4.3325   4.3837   4.4139   4.4368   4.5069   4.6968   4.7343
     4.7583   4.9134   4.9160   4.9773   5.0656   5.0877   5.2063   5.5741
    10.2678  12.2071  12.6281  13.9345  14.1547  14.1669  14.3601  14.3845
    14.6255  14.8250  14.9454  15.0997  15.2942  15.6045  15.9526  16.0242
    16.1370  16.4839  16.5877

          k = 0.0000 0.0000-0.3935 ( 15392 PWs)   bands (ev):

   -66.8579 -66.8579 -66.8579 -66.8579 -66.8100 -66.8100 -66.8100 -66.8100
   -33.6249 -33.6249 -33.6247 -33.6247 -33.6116 -33.6116 -33.6111 -33.6111
   -33.5913 -33.5913 -33.5912 -33.5912 -33.5835 -33.5835 -33.5833 -33.5833
   -33.5536 -33.5536 -33.5533 -33.5533 -33.5309 -33.5309 -33.5307 -33.5307
   -12.6615 -12.6615 -12.5658 -12.5658 -11.2313 -11.2313 -11.2228 -11.2228
   -11.1317 -11.1317 -10.9142 -10.9142 -10.8286 -10.8286 -10.7380 -10.7380
    -0.1158  -0.1158  -0.1053  -0.1053   0.8412   0.8412   0.8951   0.8951
     1.4845   1.4845   1.8892   1.8892   2.1692   2.1692   2.4868   2.4868
     2.7433   2.7433   2.8883   2.8883   3.2138   3.2138   3.3326   3.3326
     3.3451   3.3451   3.5268   3.5268   3.8194   3.8194   3.9042   3.9042
     4.1959   4.1959   4.3369   4.3369   4.4370   4.4370   4.5685   4.5685
     4.7881   4.7881   4.8071   4.8071   5.0953   5.0953   5.2134   5.2134
    12.0844  12.0844  13.2081  13.2081  13.6969  13.6969  14.7916  14.7916
    15.0459  15.0459  15.8418  15.8418  16.0480  16.0481  16.1343  16.1343
    16.2389  16.2389  16.5371

          k =-0.4958 0.0000 0.0000 ( 15374 PWs)   bands (ev):

   -66.8591 -66.8591 -66.8567 -66.8567 -66.8100 -66.8100 -66.8100 -66.8100
   -33.6444 -33.6444 -33.6139 -33.6139 -33.6105 -33.6105 -33.6034 -33.6034
   -33.5951 -33.5951 -33.5873 -33.5873 -33.5840 -33.5840 -33.5832 -33.5832
   -33.5539 -33.5539 -33.5531 -33.5531 -33.5309 -33.5309 -33.5307 -33.5307
   -12.5162 -12.5162 -12.2016 -12.2016 -11.6748 -11.6748 -11.4308 -11.4308
   -11.0423 -11.0423 -10.8540 -10.8540 -10.8505 -10.8505 -10.8452 -10.8452
    -0.2554  -0.2554  -0.1888  -0.1888   1.2201   1.2201   1.2675   1.2675
     1.7115   1.7115   1.8105   1.8105   1.9641   1.9641   2.2902   2.2902
     2.4144   2.4144   2.5206   2.5206   2.5905   2.5905   3.0174   3.0174
     3.5077   3.5077   3.6675   3.6675   3.9243   3.9243   4.0334   4.0334
     4.5425   4.5425   4.6614   4.6614   4.6925   4.6925   4.8256   4.8256
     5.0157   5.0157   5.0610   5.0610   5.1468   5.1468   5.3532   5.3532
    12.6068  12.6068  13.3258  13.3258  13.6598  13.6598  13.8961  13.8961
    14.2542  14.2542  14.8881  14.8881  15.2328  15.2328  15.8756  15.8756
    16.6764  16.6777  16.8116

          k =-0.4958 0.0000-0.3935 ( 15436 PWs)   bands (ev):

   -66.8579 -66.8579 -66.8579 -66.8579 -66.8100 -66.8100 -66.8100 -66.8100
   -33.6249 -33.6249 -33.6247 -33.6247 -33.6119 -33.6119 -33.6110 -33.6110
   -33.5916 -33.5916 -33.5910 -33.5910 -33.5839 -33.5839 -33.5831 -33.5831
   -33.5536 -33.5536 -33.5533 -33.5533 -33.5308 -33.5308 -33.5307 -33.5307
   -12.3684 -12.3684 -12.3128 -12.3128 -11.5665 -11.5665 -11.5655 -11.5655
   -11.0377 -11.0377 -10.9493 -10.9493 -10.8270 -10.8270 -10.8234 -10.8234
    -0.1094  -0.1094  -0.0128  -0.0128   1.4535   1.4535   1.6669   1.6669
     1.7600   1.7600   1.8757   1.8757   1.9444   1.9444   2.2533   2.2533
     2.3107   2.3107   2.3218   2.3218   2.7958   2.7958   2.8437   2.8437
     3.0171   3.0171   3.4125   3.4125   3.9126   3.9126   3.9679   3.9679
     4.2493   4.2493   4.5902   4.5902   4.7043   4.7043   4.8278   4.8278
     4.9892   4.9892   5.0135   5.0135   5.1838   5.1838   5.2223   5.2223
    13.4432  13.4432  13.5268  13.5268  14.0937  14.0937  14.1483  14.1483
    14.7926  14.7926  15.0659  15.0659  15.3795  15.3795  15.4960  15.4960
    16.2824  16.3773  16.3806

     the Fermi energy is     6.5569 ev

!    total energy              =   -1988.20694480 Ry

     total all-electron energy =     -7937.302797 Ry
     estimated scf accuracy    <          6.7E-09 Ry
     smearing contrib. (-TS)   =      -0.00000000 Ry
     internal energy E=F+TS    =   -1988.20694480 Ry

     The total energy is F=E-TS. E is the sum of the following terms:
     one-electron contribution =    -929.15105121 Ry
     hartree contribution      =     540.19296746 Ry
     xc contribution           =    -288.10819806 Ry
     ewald contribution        =    -895.93371957 Ry
     one-center paw contrib.   =    -415.20694342 Ry

     total magnetization       =     0.00 Bohr mag/cell
     absolute magnetization    =     0.00 Bohr mag/cell

     convergence has been achieved in  11 iterations

     Forces acting on atoms (cartesian axes, Ry/au):

     atom    1 type  1   force =    -0.00000000   -0.00000000    0.00000000
     atom    2 type  1   force =    -0.00000000    0.00000000    0.00000000
     atom    3 type  1   force =     0.00000000    0.00000000    0.00000000
     atom    4 type  1   force =     0.00000000   -0.00000000    0.00000000
     atom    5 type  1   force =    -0.00210143    0.00001942    0.00000000
     atom    6 type  1   force =     0.00210143   -0.00001942    0.00000000
     atom    7 type  1   force =    -0.00210143   -0.00001942    0.00000000
     atom    8 type  1   force =     0.00210143    0.00001942    0.00000000
     atom    9 type  2   force =    -0.00233639   -0.00246875    0.00000000
     atom   10 type  2   force =     0.00233639    0.00246875    0.00000000
     atom   11 type  2   force =    -0.00233639    0.00246875   -0.00000000
     atom   12 type  2   force =     0.00233639   -0.00246875   -0.00000000
     atom   13 type  3   force =    -0.00038031    0.00094584    0.00000000
     atom   14 type  3   force =     0.00038031   -0.00094584   -0.00000000
     atom   15 type  3   force =    -0.00038031   -0.00094584    0.00000000
     atom   16 type  3   force =     0.00038031    0.00094584   -0.00000000
     atom   17 type  3   force =     0.00018178   -0.00357588    0.00000000
     atom   18 type  3   force =    -0.00018178    0.00357588    0.00000000
     atom   19 type  3   force =     0.00018178    0.00357588    0.00000000
     atom   20 type  3   force =    -0.00018178   -0.00357588    0.00000000
     atom   21 type  3   force =     0.00034098    0.00059982    0.00018275
     atom   22 type  3   force =    -0.00034098   -0.00059982   -0.00018275
     atom   23 type  3   force =     0.00034098   -0.00059982   -0.00018275
     atom   24 type  3   force =    -0.00034098    0.00059982    0.00018275
     atom   25 type  3   force =    -0.00034098   -0.00059982    0.00018275
     atom   26 type  3   force =     0.00034098    0.00059982   -0.00018275
     atom   27 type  3   force =    -0.00034098    0.00059982   -0.00018275
     atom   28 type  3   force =     0.00034098   -0.00059982    0.00018275

     Total force =     0.011108     Total SCF correction =     0.000147


     Computing stress (Cartesian axis) and pressure

          total   stress  (Ry/bohr**3)                   (kbar)     P=        1.34
   0.00001104   0.00000000   0.00000000            1.62        0.00        0.00
   0.00000000  -0.00000112   0.00000000            0.00       -0.16        0.00
   0.00000000   0.00000000   0.00001736            0.00        0.00        2.55

     Energy error            =      7.0E-04
     Gradient error          =      3.6E-03
     Cell gradient error     =      1.7E-05


     number of scf cycles    =   8
     number of bfgs steps    =   7

     enthalpy old            =   -1988.2062487878 Ry
     enthalpy new            =   -1988.2069448037 Ry

     CASE: enthalpy_new < enthalpy_old

     new trust radius        =       0.0054138024 bohr
     new conv_thr            =       0.0000000358 Ry

     new unit-cell volume =   2011.84652 a.u.^3 (   298.12490 Ang^3 )
     density =      3.13456 g/cm^3

CELL_PARAMETERS (angstrom)
   4.797377628   0.000000000   0.000000000
   0.000000000  10.289866919   0.000000000
   0.000000000   0.000000000   6.039271895

ATOMIC_POSITIONS (angstrom)
Mg           -0.0000000000       -0.0000000000       -0.0000000000
Mg            2.3986888141        5.1449334596       -0.0000000000
Mg           -0.0000000000        0.0000000000        3.0196359475
Mg            2.3986888141        5.1449334596        3.0196359475
Mg            0.0553254335        2.8477771474        4.5294539213
Mg            4.7420521947        7.4420897717        1.5098179738
Mg            2.4540142476        2.2971563121        1.5098179738
Mg            2.3433633806        7.9927106070        4.5294539213
Si            0.3616636626        4.1896421421        1.5098179738
Si            4.4357139655        6.1002247771        4.5294539213
Si            2.7603524767        0.9552913175        4.5294539213
Si            2.0370251515        9.3345756017        1.5098179738
O             1.1282358453        0.9400370960        4.5294539213
O             3.6691417828        9.3498298232        1.5098179738
O             3.5269246594        4.2048963636        1.5098179738
O             1.2704529688        6.0849705556        4.5294539213
O             1.3280416582        0.5612399392        1.5098179738
O             3.4693359699        9.7286269800        4.5294539213
O             3.7267304723        4.5836935204        4.5294539213
O             1.0706471559        5.7061733988        1.5098179738
O             1.0757312620        3.4733127089        2.8213723134
O             3.7216463661        6.8165542103        3.2178995816
O             3.4744200761        1.6716207507        3.2178995816
O             1.3229575520        8.6182461685        2.8213723134
O             3.7216463661        6.8165542103        5.8410082609
O             1.0757312620        3.4733127089        0.1982636341
O             1.3229575520        8.6182461685        0.1982636341
O             3.4744200761        1.6716207507        5.8410082609



     Writing output data file ./out/oliv.save/
     NEW-OLD atomic charge density approx. for the potential

     Check: negative core charge=   -0.000009
     extrapolated charge  192.04574, renormalised to  192.00000
     Generating pointlists ...

     total cpu time spent up to now is     6001.2 secs

     Self-consistent Calculation

     iteration #  1     ecut=    60.00 Ry     beta= 0.30
     Davidson diagonalization with overlap
     ethr =  1.00E-06,  avg # of iterations =  5.0

     Threshold (ethr) on eigenvalues was too large:
     Diagonalizing with lowered threshold

     Davidson diagonalization with overlap
     ethr =  3.20E-08,  avg # of iterations =  8.8

     total cpu time spent up to now is     6099.1 secs

     total energy              =   -1988.20704995 Ry
     estimated scf accuracy    <       0.00006614 Ry

     total magnetization       =     0.00 Bohr mag/cell
     absolute magnetization    =     0.00 Bohr mag/cell

     iteration #  2     ecut=    60.00 Ry     beta= 0.30
     Davidson diagonalization with overlap
     ethr =  3.44E-08,  avg # of iterations =  3.5

     total cpu time spent up to now is     6143.1 secs

     total energy              =   -1988.20708474 Ry
     estimated scf accuracy    <       0.00002160 Ry

     total magnetization       =     0.00 Bohr mag/cell
     absolute magnetization    =     0.00 Bohr mag/cell

     iteration #  3     ecut=    60.00 Ry     beta= 0.30
     Davidson diagonalization with overlap
     ethr =  1.12E-08,  avg # of iterations =  3.4

     total cpu time spent up to now is     6178.0 secs

     total energy              =   -1988.20708224 Ry
     estimated scf accuracy    <       0.00001107 Ry

     total magnetization       =     0.00 Bohr mag/cell
     absolute magnetization    =     0.00 Bohr mag/cell

     iteration #  4     ecut=    60.00 Ry     beta= 0.30
     Davidson diagonalization with overlap
     ethr =  5.76E-09,  avg # of iterations =  4.0

     total cpu time spent up to now is     6227.6 secs

     total energy              =   -1988.20708737 Ry
     estimated scf accuracy    <       0.00000279 Ry

     total magnetization       =    -0.00 Bohr mag/cell
     absolute magnetization    =     0.00 Bohr mag/cell

     iteration #  5     ecut=    60.00 Ry     beta= 0.30
     Davidson diagonalization with overlap
     ethr =  1.45E-09,  avg # of iterations =  2.5

     total cpu time spent up to now is     6260.2 secs

     total energy              =   -1988.20708634 Ry
     estimated scf accuracy    <       0.00000172 Ry

     total magnetization       =     0.00 Bohr mag/cell
     absolute magnetization    =     0.00 Bohr mag/cell

     iteration #  6     ecut=    60.00 Ry     beta= 0.30
     Davidson diagonalization with overlap
     ethr =  8.98E-10,  avg # of iterations =  5.5

     total cpu time spent up to now is     6316.5 secs

     total energy              =   -1988.20708717 Ry
     estimated scf accuracy    <       0.00000232 Ry

     total magnetization       =     0.00 Bohr mag/cell
     absolute magnetization    =     0.00 Bohr mag/cell

     iteration #  7     ecut=    60.00 Ry     beta= 0.30
     Davidson diagonalization with overlap
     ethr =  8.98E-10,  avg # of iterations =  2.0

     total cpu time spent up to now is     6344.3 secs

     total energy              =   -1988.20708696 Ry
     estimated scf accuracy    <       0.00000060 Ry

     total magnetization       =     0.00 Bohr mag/cell
     absolute magnetization    =     0.00 Bohr mag/cell

     iteration #  8     ecut=    60.00 Ry     beta= 0.30
     Davidson diagonalization with overlap
     ethr =  3.14E-10,  avg # of iterations =  4.0

     total cpu time spent up to now is     6388.0 secs

     total energy              =   -1988.20708732 Ry
     estimated scf accuracy    <       0.00000022 Ry

     total magnetization       =    -0.00 Bohr mag/cell
     absolute magnetization    =     0.00 Bohr mag/cell

     iteration #  9     ecut=    60.00 Ry     beta= 0.30
     Davidson diagonalization with overlap
     ethr =  1.14E-10,  avg # of iterations =  5.4

     Magnetic moment per site:
     atom:    1    charge:    8.1144    magn:   -0.0000    constr:    0.0000
     atom:    2    charge:    8.1144    magn:   -0.0000    constr:    0.0000
     atom:    3    charge:    8.1144    magn:   -0.0000    constr:    0.0000
     atom:    4    charge:    8.1144    magn:   -0.0000    constr:    0.0000
     atom:    5    charge:    8.0870    magn:   -0.0000    constr:    0.0000
     atom:    6    charge:    8.0870    magn:   -0.0000    constr:    0.0000
     atom:    7    charge:    8.0870    magn:   -0.0000    constr:    0.0000
     atom:    8    charge:    8.0870    magn:   -0.0000    constr:    0.0000
     atom:    9    charge:    0.3890    magn:   -0.0000    constr:    0.0000
     atom:   10    charge:    0.3890    magn:   -0.0000    constr:    0.0000
     atom:   11    charge:    0.3890    magn:   -0.0000    constr:    0.0000
     atom:   12    charge:    0.3890    magn:   -0.0000    constr:    0.0000
     atom:   13    charge:    4.0572    magn:    0.0000    constr:    0.0000
     atom:   14    charge:    4.0572    magn:    0.0000    constr:    0.0000
     atom:   15    charge:    4.0572    magn:    0.0000    constr:    0.0000
     atom:   16    charge:    4.0572    magn:    0.0000    constr:    0.0000
     atom:   17    charge:    4.0537    magn:   -0.0000    constr:    0.0000
     atom:   18    charge:    4.0537    magn:   -0.0000    constr:    0.0000
     atom:   19    charge:    4.0537    magn:   -0.0000    constr:    0.0000
     atom:   20    charge:    4.0537    magn:   -0.0000    constr:    0.0000
     atom:   21    charge:    4.0429    magn:    0.0000    constr:    0.0000
     atom:   22    charge:    4.0429    magn:    0.0000    constr:    0.0000
     atom:   23    charge:    4.0429    magn:    0.0000    constr:    0.0000
     atom:   24    charge:    4.0429    magn:    0.0000    constr:    0.0000
     atom:   25    charge:    4.0429    magn:    0.0000    constr:    0.0000
     atom:   26    charge:    4.0429    magn:    0.0000    constr:    0.0000
     atom:   27    charge:    4.0429    magn:    0.0000    constr:    0.0000
     atom:   28    charge:    4.0429    magn:    0.0000    constr:    0.0000

     total cpu time spent up to now is     6416.4 secs

     End of self-consistent calculation

 ------ SPIN UP ------------


          k = 0.0000 0.0000 0.0000 ( 15339 PWs)   bands (ev):

   -66.8633 -66.8633 -66.8609 -66.8609 -66.8119 -66.8118 -66.8118 -66.8118
   -33.6487 -33.6483 -33.6186 -33.6175 -33.6146 -33.6143 -33.6077 -33.6077
   -33.5992 -33.5987 -33.5915 -33.5914 -33.5870 -33.5856 -33.5848 -33.5842
   -33.5561 -33.5557 -33.5549 -33.5546 -33.5345 -33.5340 -33.5311 -33.5309
   -12.9569 -12.7352 -12.4471 -12.3111 -11.3236 -11.2735 -11.1744 -11.1409
   -11.1334 -10.9904 -10.9538 -10.9241 -10.8473 -10.8294 -10.7864 -10.7239
    -0.4586  -0.4069   0.0509   0.1267   0.3089   0.4574   1.0073   1.0448
     1.1944   1.5554   1.5769   1.6947   1.9268   2.2683   2.4100   2.5601
     2.7508   3.0252   3.1188   3.1352   3.1486   3.1898   3.2397   3.3531
     3.4967   3.5948   3.7497   3.7581   3.7757   4.0201   4.0476   4.0575
     4.0711   4.3342   4.3769   4.4122   4.4347   4.5045   4.6949   4.7283
     4.7542   4.9081   4.9182   4.9786   5.0682   5.0910   5.2058   5.5729
    10.2619  12.2005  12.6214  13.9334  14.1517  14.1696  14.3509  14.3841
    14.6277  14.8212  14.9377  15.0932  15.2950  15.5986  15.9446  16.0136
    16.1323  16.4841  16.5858

          k = 0.0000 0.0000-0.3936 ( 15392 PWs)   bands (ev):

   -66.8621 -66.8621 -66.8621 -66.8621 -66.8118 -66.8118 -66.8118 -66.8118
   -33.6289 -33.6289 -33.6286 -33.6286 -33.6159 -33.6159 -33.6155 -33.6155
   -33.5954 -33.5954 -33.5952 -33.5952 -33.5854 -33.5854 -33.5852 -33.5852
   -33.5555 -33.5555 -33.5551 -33.5551 -33.5328 -33.5328 -33.5326 -33.5326
   -12.6624 -12.6624 -12.5668 -12.5668 -11.2340 -11.2340 -11.2266 -11.2266
   -11.1324 -11.1324 -10.9139 -10.9139 -10.8297 -10.8297 -10.7391 -10.7391
    -0.1187  -0.1187  -0.1089  -0.1089   0.8428   0.8428   0.8955   0.8955
     1.4828   1.4828   1.8885   1.8885   2.1669   2.1669   2.4857   2.4857
     2.7434   2.7434   2.8851   2.8851   3.2113   3.2113   3.3269   3.3269
     3.3450   3.3450   3.5251   3.5251   3.8175   3.8175   3.9026   3.9026
     4.1926   4.1926   4.3313   4.3313   4.4351   4.4351   4.5704   4.5704
     4.7894   4.7894   4.8029   4.8029   5.0945   5.0945   5.2131   5.2131
    12.0789  12.0789  13.2010  13.2010  13.6917  13.6917  14.7901  14.7901
    15.0433  15.0433  15.8402  15.8402  16.0387  16.0387  16.1294  16.1294
    16.2260  16.2260  16.5437

          k =-0.4955 0.0000 0.0000 ( 15374 PWs)   bands (ev):

   -66.8633 -66.8633 -66.8609 -66.8609 -66.8118 -66.8118 -66.8118 -66.8118
   -33.6485 -33.6485 -33.6182 -33.6182 -33.6145 -33.6145 -33.6077 -33.6077
   -33.5992 -33.5992 -33.5915 -33.5915 -33.5858 -33.5858 -33.5851 -33.5851
   -33.5558 -33.5558 -33.5549 -33.5549 -33.5327 -33.5327 -33.5325 -33.5325
   -12.5175 -12.5175 -12.2035 -12.2035 -11.6780 -11.6780 -11.4340 -11.4340
   -11.0397 -11.0397 -10.8532 -10.8532 -10.8521 -10.8521 -10.8479 -10.8479
    -0.2552  -0.2552  -0.1904  -0.1904   1.2200   1.2200   1.2658   1.2658
     1.7108   1.7108   1.8057   1.8057   1.9628   1.9628   2.2900   2.2900
     2.4108   2.4108   2.5178   2.5178   2.5888   2.5888   3.0133   3.0133
     3.5074   3.5074   3.6664   3.6664   3.9200   3.9200   4.0348   4.0348
     4.5372   4.5372   4.6568   4.6568   4.6927   4.6927   4.8254   4.8254
     5.0155   5.0155   5.0608   5.0608   5.1437   5.1437   5.3521   5.3521
    12.6006  12.6006  13.3203  13.3203  13.6529  13.6529  13.8966  13.8966
    14.2518  14.2518  14.8832  14.8832  15.2237  15.2237  15.8699  15.8699
    16.6722  16.6725  16.8110

          k =-0.4955 0.0000-0.3936 ( 15436 PWs)   bands (ev):

   -66.8621 -66.8621 -66.8621 -66.8621 -66.8118 -66.8118 -66.8118 -66.8118
   -33.6288 -33.6288 -33.6287 -33.6287 -33.6162 -33.6162 -33.6154 -33.6154
   -33.5957 -33.5957 -33.5951 -33.5951 -33.5857 -33.5857 -33.5850 -33.5850
   -33.5555 -33.5555 -33.5551 -33.5551 -33.5327 -33.5327 -33.5326 -33.5326
   -12.3698 -12.3698 -12.3145 -12.3145 -11.5697 -11.5697 -11.5688 -11.5688
   -11.0362 -11.0362 -10.9498 -10.9498 -10.8273 -10.8273 -10.8253 -10.8253
    -0.1088  -0.1088  -0.0135  -0.0135   1.4507   1.4507   1.6635   1.6635
     1.7583   1.7583   1.8738   1.8738   1.9407   1.9407   2.2502   2.2502
     2.3074   2.3074   2.3226   2.3226   2.7945   2.7945   2.8413   2.8413
     3.0204   3.0204   3.4102   3.4102   3.9111   3.9111   3.9655   3.9655
     4.2492   4.2492   4.5880   4.5880   4.7007   4.7007   4.8260   4.8260
     4.9883   4.9883   5.0102   5.0102   5.1814   5.1814   5.2214   5.2214
    13.4375  13.4375  13.5209  13.5209  14.0863  14.0863  14.1455  14.1455
    14.7893  14.7893  15.0585  15.0585  15.3767  15.3767  15.4843  15.4843
    16.2793  16.3768  16.3800

 ------ SPIN DOWN ----------


          k = 0.0000 0.0000 0.0000 ( 15339 PWs)   bands (ev):

   -66.8633 -66.8633 -66.8609 -66.8609 -66.8119 -66.8118 -66.8118 -66.8118
   -33.6487 -33.6483 -33.6186 -33.6175 -33.6146 -33.6143 -33.6077 -33.6077
   -33.5992 -33.5987 -33.5915 -33.5914 -33.5870 -33.5856 -33.5848 -33.5842
   -33.5561 -33.5557 -33.5549 -33.5546 -33.5345 -33.5340 -33.5311 -33.5309
   -12.9569 -12.7352 -12.4471 -12.3111 -11.3236 -11.2735 -11.1744 -11.1409
   -11.1334 -10.9904 -10.9538 -10.9241 -10.8473 -10.8294 -10.7864 -10.7239
    -0.4586  -0.4069   0.0509   0.1267   0.3089   0.4574   1.0073   1.0448
     1.1944   1.5554   1.5769   1.6947   1.9268   2.2683   2.4100   2.5601
     2.7508   3.0252   3.1188   3.1352   3.1486   3.1898   3.2397   3.3531
     3.4967   3.5948   3.7497   3.7581   3.7757   4.0201   4.0476   4.0575
     4.0711   4.3342   4.3769   4.4122   4.4347   4.5045   4.6949   4.7283
     4.7542   4.9081   4.9182   4.9786   5.0682   5.0910   5.2058   5.5729
    10.2619  12.2005  12.6214  13.9334  14.1517  14.1696  14.3509  14.3841
    14.6277  14.8212  14.9377  15.0932  15.2950  15.5986  15.9446  16.0136
    16.1323  16.4841  16.5858

          k = 0.0000 0.0000-0.3936 ( 15392 PWs)   bands (ev):

   -66.8621 -66.8621 -66.8621 -66.8621 -66.8118 -66.8118 -66.8118 -66.8118
   -33.6289 -33.6289 -33.6286 -33.6286 -33.6159 -33.6159 -33.6155 -33.6155
   -33.5954 -33.5954 -33.5952 -33.5952 -33.5854 -33.5854 -33.5852 -33.5852
   -33.5555 -33.5555 -33.5551 -33.5551 -33.5328 -33.5328 -33.5326 -33.5326
   -12.6624 -12.6624 -12.5668 -12.5668 -11.2340 -11.2340 -11.2266 -11.2266
   -11.1324 -11.1324 -10.9139 -10.9139 -10.8297 -10.8297 -10.7391 -10.7391
    -0.1187  -0.1187  -0.1089  -0.1089   0.8428   0.8428   0.8955   0.8955
     1.4828   1.4828   1.8885   1.8885   2.1669   2.1669   2.4857   2.4857
     2.7434   2.7434   2.8851   2.8851   3.2113   3.2113   3.3269   3.3269
     3.3450   3.3450   3.5251   3.5251   3.8175   3.8175   3.9026   3.9026
     4.1926   4.1926   4.3313   4.3313   4.4351   4.4351   4.5704   4.5704
     4.7894   4.7894   4.8029   4.8029   5.0945   5.0945   5.2131   5.2131
    12.0789  12.0789  13.2010  13.2010  13.6917  13.6917  14.7901  14.7901
    15.0433  15.0433  15.8402  15.8402  16.0387  16.0387  16.1294  16.1294
    16.2260  16.2260  16.5437

          k =-0.4955 0.0000 0.0000 ( 15374 PWs)   bands (ev):

   -66.8633 -66.8633 -66.8609 -66.8609 -66.8118 -66.8118 -66.8118 -66.8118
   -33.6485 -33.6485 -33.6182 -33.6182 -33.6145 -33.6145 -33.6077 -33.6077
   -33.5992 -33.5992 -33.5915 -33.5915 -33.5858 -33.5858 -33.5851 -33.5851
   -33.5558 -33.5558 -33.5549 -33.5549 -33.5327 -33.5327 -33.5325 -33.5325
   -12.5175 -12.5175 -12.2035 -12.2035 -11.6780 -11.6780 -11.4340 -11.4340
   -11.0397 -11.0397 -10.8532 -10.8532 -10.8521 -10.8521 -10.8479 -10.8479
    -0.2552  -0.2552  -0.1904  -0.1904   1.2200   1.2200   1.2658   1.2658
     1.7108   1.7108   1.8057   1.8057   1.9628   1.9628   2.2900   2.2900
     2.4108   2.4108   2.5178   2.5178   2.5888   2.5888   3.0133   3.0133
     3.5074   3.5074   3.6664   3.6664   3.9200   3.9200   4.0348   4.0348
     4.5372   4.5372   4.6568   4.6568   4.6927   4.6927   4.8254   4.8254
     5.0155   5.0155   5.0608   5.0608   5.1437   5.1437   5.3521   5.3521
    12.6006  12.6006  13.3203  13.3203  13.6529  13.6529  13.8966  13.8966
    14.2518  14.2518  14.8832  14.8832  15.2237  15.2237  15.8699  15.8699
    16.6722  16.6723  16.8110

          k =-0.4955 0.0000-0.3936 ( 15436 PWs)   bands (ev):

   -66.8621 -66.8621 -66.8621 -66.8621 -66.8118 -66.8118 -66.8118 -66.8118
   -33.6288 -33.6288 -33.6287 -33.6287 -33.6162 -33.6162 -33.6154 -33.6154
   -33.5957 -33.5957 -33.5951 -33.5951 -33.5857 -33.5857 -33.5850 -33.5850
   -33.5555 -33.5555 -33.5551 -33.5551 -33.5327 -33.5327 -33.5326 -33.5326
   -12.3698 -12.3698 -12.3145 -12.3145 -11.5697 -11.5697 -11.5688 -11.5688
   -11.0362 -11.0362 -10.9498 -10.9498 -10.8273 -10.8273 -10.8253 -10.8253
    -0.1088  -0.1088  -0.0135  -0.0135   1.4507   1.4507   1.6635   1.6635
     1.7583   1.7583   1.8738   1.8738   1.9407   1.9407   2.2502   2.2502
     2.3074   2.3074   2.3226   2.3226   2.7945   2.7945   2.8413   2.8413
     3.0204   3.0204   3.4102   3.4102   3.9111   3.9111   3.9655   3.9655
     4.2492   4.2492   4.5880   4.5880   4.7007   4.7007   4.8260   4.8260
     4.9883   4.9883   5.0102   5.0102   5.1814   5.1814   5.2214   5.2214
    13.4375  13.4375  13.5209  13.5209  14.0863  14.0863  14.1455  14.1455
    14.7893  14.7893  15.0585  15.0585  15.3767  15.3767  15.4843  15.4843
    16.2793  16.3756  16.3800

     the Fermi energy is     6.5558 ev

!    total energy              =   -1988.20708733 Ry

     total all-electron energy =     -7937.302940 Ry
     estimated scf accuracy    <       0.00000003 Ry
     smearing contrib. (-TS)   =      -0.00000000 Ry
     internal energy E=F+TS    =   -1988.20708733 Ry

     The total energy is F=E-TS. E is the sum of the following terms:
     one-electron contribution =    -929.23215368 Ry
     hartree contribution      =     540.21396675 Ry
     xc contribution           =    -288.10311744 Ry
     ewald contribution        =    -895.87904661 Ry
     one-center paw contrib.   =    -415.20673635 Ry

     total magnetization       =    -0.00 Bohr mag/cell
     absolute magnetization    =     0.00 Bohr mag/cell

     convergence has been achieved in   9 iterations

     Forces acting on atoms (cartesian axes, Ry/au):

     atom    1 type  1   force =     0.00000000    0.00000000    0.00000000
     atom    2 type  1   force =     0.00000000   -0.00000000   -0.00000000
     atom    3 type  1   force =     0.00000000    0.00000000    0.00000000
     atom    4 type  1   force =     0.00000000   -0.00000000    0.00000000
     atom    5 type  1   force =    -0.00200595    0.00054248   -0.00000000
     atom    6 type  1   force =     0.00200595   -0.00054248    0.00000000
     atom    7 type  1   force =    -0.00200595   -0.00054248    0.00000000
     atom    8 type  1   force =     0.00200595    0.00054248    0.00000000
     atom    9 type  2   force =    -0.00133363   -0.00180565   -0.00000000
     atom   10 type  2   force =     0.00133363    0.00180565   -0.00000000
     atom   11 type  2   force =    -0.00133363    0.00180565    0.00000000
     atom   12 type  2   force =     0.00133363   -0.00180565    0.00000000
     atom   13 type  3   force =    -0.00068578    0.00031983   -0.00000000
     atom   14 type  3   force =     0.00068578   -0.00031983   -0.00000000
     atom   15 type  3   force =    -0.00068578   -0.00031983    0.00000000
     atom   16 type  3   force =     0.00068578    0.00031983    0.00000000
     atom   17 type  3   force =     0.00083677   -0.00278865    0.00000000
     atom   18 type  3   force =    -0.00083677    0.00278865    0.00000000
     atom   19 type  3   force =     0.00083677    0.00278865   -0.00000000
     atom   20 type  3   force =    -0.00083677   -0.00278865   -0.00000000
     atom   21 type  3   force =     0.00026227    0.00043287   -0.00024729
     atom   22 type  3   force =    -0.00026227   -0.00043287    0.00024729
     atom   23 type  3   force =     0.00026227   -0.00043287    0.00024729
     atom   24 type  3   force =    -0.00026227    0.00043287   -0.00024729
     atom   25 type  3   force =    -0.00026227   -0.00043287   -0.00024729
     atom   26 type  3   force =     0.00026227    0.00043287    0.00024729
     atom   27 type  3   force =    -0.00026227    0.00043287    0.00024729
     atom   28 type  3   force =     0.00026227   -0.00043287   -0.00024729

     Total force =     0.008727     Total SCF correction =     0.000198


     Computing stress (Cartesian axis) and pressure

          total   stress  (Ry/bohr**3)                   (kbar)     P=        0.48
  -0.00000069   0.00000000   0.00000000           -0.10        0.00        0.00
   0.00000000  -0.00000072   0.00000000            0.00       -0.11        0.00
   0.00000000   0.00000000   0.00001123            0.00        0.00        1.65

     Energy error            =      1.4E-04
     Gradient error          =      2.8E-03
     Cell gradient error     =      1.1E-05


     number of scf cycles    =   9
     number of bfgs steps    =   8

     enthalpy old            =   -1988.2069448037 Ry
     enthalpy new            =   -1988.2070873336 Ry

     CASE: enthalpy_new < enthalpy_old

     new trust radius        =       0.0081196381 bohr
     new conv_thr            =       0.0000000143 Ry

     new unit-cell volume =   2012.48960 a.u.^3 (   298.22019 Ang^3 )
     density =      3.13356 g/cm^3

CELL_PARAMETERS (angstrom)
   4.799006786   0.000000000   0.000000000
   0.000000000  10.288565535   0.000000000
   0.000000000   0.000000000   6.039915339

ATOMIC_POSITIONS (angstrom)
Mg           -0.0000000000        0.0000000000       -0.0000000000
Mg            2.3995033932        5.1442827676       -0.0000000000
Mg           -0.0000000000        0.0000000000        3.0199576697
Mg            2.3995033932        5.1442827676        3.0199576697
Mg            0.0523379828        2.8475802842        4.5299365045
Mg            4.7466688036        7.4409852510        1.5099788348
Mg            2.4518413760        2.2967024834        1.5099788348
Mg            2.3471654104        7.9918630518        4.5299365045
Si            0.3601219650        4.1859731505        1.5099788348
Si            4.4388848215        6.1025923847        4.5299365045
Si            2.7596253582        0.9583096171        4.5299365045
Si            2.0393814283        9.3302559180        1.5099788348
O             1.1281313635        0.9428082181        4.5299365045
O             3.6708754230        9.3457573171        1.5099788348
O             3.5276347567        4.2014745495        1.5099788348
O             1.2713720297        6.0870909857        4.5299365045
O             1.3282236223        0.5568811977        1.5099788348
O             3.4707831642        9.7316843375        4.5299365045
O             3.7277270155        4.5874015699        4.5299365045
O             1.0712797710        5.7011639652        1.5099788348
O             1.0754763560        3.4726958809        2.8224174561
O             3.7235304304        6.8158696543        3.2174978833
O             3.4749797492        1.6715868867        3.2174978833
O             1.3240270372        8.6169786485        2.8224174561
O             3.7235304304        6.8158696543        5.8423751258
O             1.0754763560        3.4726958809        0.1975402136
O             1.3240270372        8.6169786485        0.1975402136
O             3.4749797492        1.6715868867        5.8423751258



     Writing output data file ./out/oliv.save/
     NEW-OLD atomic charge density approx. for the potential

     Check: negative core charge=   -0.000009
     extrapolated charge  192.06135, renormalised to  192.00000
     Generating pointlists ...

     total cpu time spent up to now is     6451.2 secs

     Self-consistent Calculation

     iteration #  1     ecut=    60.00 Ry     beta= 0.30
     Davidson diagonalization with overlap
     ethr =  1.00E-06,  avg # of iterations =  6.6

     Threshold (ethr) on eigenvalues was too large:
     Diagonalizing with lowered threshold

     Davidson diagonalization with overlap
     ethr =  4.39E-08,  avg # of iterations =  6.8

     total cpu time spent up to now is     6549.9 secs

     total energy              =   -1988.20716805 Ry
     estimated scf accuracy    <       0.00009527 Ry

     total magnetization       =     0.00 Bohr mag/cell
     absolute magnetization    =     0.00 Bohr mag/cell

     iteration #  2     ecut=    60.00 Ry     beta= 0.30
     Davidson diagonalization with overlap
     ethr =  4.96E-08,  avg # of iterations =  3.5

     total cpu time spent up to now is     6593.7 secs

     total energy              =   -1988.20722495 Ry
     estimated scf accuracy    <       0.00003791 Ry

     total magnetization       =     0.00 Bohr mag/cell
     absolute magnetization    =     0.00 Bohr mag/cell

     iteration #  3     ecut=    60.00 Ry     beta= 0.30
     Davidson diagonalization with overlap
     ethr =  1.97E-08,  avg # of iterations =  2.6

     total cpu time spent up to now is     6624.5 secs

     total energy              =   -1988.20721978 Ry
     estimated scf accuracy    <       0.00001949 Ry

     total magnetization       =    -0.00 Bohr mag/cell
     absolute magnetization    =     0.00 Bohr mag/cell

     iteration #  4     ecut=    60.00 Ry     beta= 0.30
     Davidson diagonalization with overlap
     ethr =  1.02E-08,  avg # of iterations =  4.0

     total cpu time spent up to now is     6666.8 secs

     total energy              =   -1988.20722827 Ry
     estimated scf accuracy    <       0.00000400 Ry

     total magnetization       =     0.00 Bohr mag/cell
     absolute magnetization    =     0.00 Bohr mag/cell

     iteration #  5     ecut=    60.00 Ry     beta= 0.30
     Davidson diagonalization with overlap
     ethr =  2.08E-09,  avg # of iterations =  4.2

     total cpu time spent up to now is     6698.4 secs

     total energy              =   -1988.20722698 Ry
     estimated scf accuracy    <       0.00000264 Ry

     total magnetization       =     0.00 Bohr mag/cell
     absolute magnetization    =     0.00 Bohr mag/cell

     iteration #  6     ecut=    60.00 Ry     beta= 0.30
     Davidson diagonalization with overlap
     ethr =  1.37E-09,  avg # of iterations =  7.1

     total cpu time spent up to now is     6750.7 secs

     total energy              =   -1988.20722783 Ry
     estimated scf accuracy    <       0.00000540 Ry

     total magnetization       =     0.00 Bohr mag/cell
     absolute magnetization    =     0.00 Bohr mag/cell

     iteration #  7     ecut=    60.00 Ry     beta= 0.30
     Davidson diagonalization with overlap
     ethr =  1.37E-09,  avg # of iterations =  2.0

     total cpu time spent up to now is     6780.6 secs

     total energy              =   -1988.20722773 Ry
     estimated scf accuracy    <       0.00000083 Ry

     total magnetization       =     0.00 Bohr mag/cell
     absolute magnetization    =     0.00 Bohr mag/cell

     iteration #  8     ecut=    60.00 Ry     beta= 0.30
     Davidson diagonalization with overlap
     ethr =  4.34E-10,  avg # of iterations =  5.4

     total cpu time spent up to now is     6828.2 secs

     total energy              =   -1988.20722844 Ry
     estimated scf accuracy    <       0.00000195 Ry

     total magnetization       =    -0.00 Bohr mag/cell
     absolute magnetization    =     0.00 Bohr mag/cell

     iteration #  9     ecut=    60.00 Ry     beta= 0.30
     Davidson diagonalization with overlap
     ethr =  4.34E-10,  avg # of iterations =  2.0

     total cpu time spent up to now is     6858.1 secs

     total energy              =   -1988.20722838 Ry
     estimated scf accuracy    <       0.00000046 Ry

     total magnetization       =    -0.00 Bohr mag/cell
     absolute magnetization    =     0.00 Bohr mag/cell

     iteration # 10     ecut=    60.00 Ry     beta= 0.30
     Davidson diagonalization with overlap
     ethr =  2.40E-10,  avg # of iterations =  5.0

     total cpu time spent up to now is     6896.4 secs

     total energy              =   -1988.20722861 Ry
     estimated scf accuracy    <       0.00000003 Ry

     total magnetization       =     0.00 Bohr mag/cell
     absolute magnetization    =     0.00 Bohr mag/cell

     iteration # 11     ecut=    60.00 Ry     beta= 0.30
     Davidson diagonalization with overlap
     ethr =  1.42E-11,  avg # of iterations =  7.8

     total cpu time spent up to now is     6934.4 secs

     total energy              =   -1988.20722863 Ry
     estimated scf accuracy    <       0.00000004 Ry

     total magnetization       =     0.00 Bohr mag/cell
     absolute magnetization    =     0.00 Bohr mag/cell

     iteration # 12     ecut=    60.00 Ry     beta= 0.30
     Davidson diagonalization with overlap
     ethr =  1.42E-11,  avg # of iterations =  1.2

     total cpu time spent up to now is     6959.0 secs

     total energy              =   -1988.20722863 Ry
     estimated scf accuracy    <       0.00000004 Ry

     total magnetization       =    -0.00 Bohr mag/cell
     absolute magnetization    =     0.00 Bohr mag/cell

     iteration # 13     ecut=    60.00 Ry     beta= 0.30
     Davidson diagonalization with overlap
     ethr =  1.42E-11,  avg # of iterations =  1.0

     total cpu time spent up to now is     6981.9 secs

     total energy              =   -1988.20722862 Ry
     estimated scf accuracy    <       0.00000002 Ry

     total magnetization       =    -0.00 Bohr mag/cell
     absolute magnetization    =     0.00 Bohr mag/cell

     iteration # 14     ecut=    60.00 Ry     beta= 0.30
     Davidson diagonalization with overlap
     ethr =  7.88E-12,  avg # of iterations =  2.0

     Magnetic moment per site:
     atom:    1    charge:    8.1140    magn:   -0.0000    constr:    0.0000
     atom:    2    charge:    8.1140    magn:   -0.0000    constr:    0.0000
     atom:    3    charge:    8.1140    magn:   -0.0000    constr:    0.0000
     atom:    4    charge:    8.1140    magn:   -0.0000    constr:    0.0000
     atom:    5    charge:    8.0869    magn:   -0.0000    constr:    0.0000
     atom:    6    charge:    8.0869    magn:   -0.0000    constr:    0.0000
     atom:    7    charge:    8.0869    magn:   -0.0000    constr:    0.0000
     atom:    8    charge:    8.0869    magn:   -0.0000    constr:    0.0000
     atom:    9    charge:    0.3891    magn:   -0.0000    constr:    0.0000
     atom:   10    charge:    0.3891    magn:   -0.0000    constr:    0.0000
     atom:   11    charge:    0.3891    magn:   -0.0000    constr:    0.0000
     atom:   12    charge:    0.3891    magn:   -0.0000    constr:    0.0000
     atom:   13    charge:    4.0575    magn:    0.0000    constr:    0.0000
     atom:   14    charge:    4.0575    magn:    0.0000    constr:    0.0000
     atom:   15    charge:    4.0575    magn:    0.0000    constr:    0.0000
     atom:   16    charge:    4.0575    magn:    0.0000    constr:    0.0000
     atom:   17    charge:    4.0542    magn:    0.0000    constr:    0.0000
     atom:   18    charge:    4.0542    magn:    0.0000    constr:    0.0000
     atom:   19    charge:    4.0542    magn:    0.0000    constr:    0.0000
     atom:   20    charge:    4.0542    magn:    0.0000    constr:    0.0000
     atom:   21    charge:    4.0430    magn:    0.0000    constr:    0.0000
     atom:   22    charge:    4.0430    magn:    0.0000    constr:    0.0000
     atom:   23    charge:    4.0430    magn:    0.0000    constr:    0.0000
     atom:   24    charge:    4.0430    magn:    0.0000    constr:    0.0000
     atom:   25    charge:    4.0430    magn:    0.0000    constr:    0.0000
     atom:   26    charge:    4.0430    magn:    0.0000    constr:    0.0000
     atom:   27    charge:    4.0430    magn:    0.0000    constr:    0.0000
     atom:   28    charge:    4.0430    magn:    0.0000    constr:    0.0000

     total cpu time spent up to now is     7011.4 secs

     End of self-consistent calculation

 ------ SPIN UP ------------


          k = 0.0000 0.0000 0.0000 ( 15339 PWs)   bands (ev):

   -66.8674 -66.8674 -66.8650 -66.8650 -66.8165 -66.8165 -66.8164 -66.8164
   -33.6524 -33.6520 -33.6227 -33.6216 -33.6184 -33.6181 -33.6118 -33.6118
   -33.6034 -33.6028 -33.5957 -33.5956 -33.5916 -33.5903 -33.5894 -33.5888
   -33.5606 -33.5602 -33.5594 -33.5591 -33.5391 -33.5386 -33.5357 -33.5355
   -12.9600 -12.7379 -12.4528 -12.3156 -11.3288 -11.2765 -11.1807 -11.1397
   -11.1388 -10.9945 -10.9513 -10.9283 -10.8460 -10.8272 -10.7902 -10.7279
    -0.4633  -0.4087   0.0454   0.1220   0.3070   0.4592   1.0057   1.0440
     1.1941   1.5545   1.5779   1.6930   1.9272   2.2669   2.4099   2.5540
     2.7499   3.0240   3.1203   3.1336   3.1414   3.1865   3.2341   3.3497
     3.4909   3.5947   3.7442   3.7545   3.7740   4.0246   4.0404   4.0488
     4.0695   4.3381   4.3707   4.4070   4.4315   4.4985   4.6909   4.7219
     4.7469   4.9007   4.9197   4.9805   5.0712   5.0944   5.2050   5.5714
    10.2547  12.1949  12.6083  13.9281  14.1475  14.1822  14.3450  14.3916
    14.6219  14.8212  14.9256  15.0855  15.2925  15.5952  15.9389  15.9988
    16.1236  16.4898  16.5835

          k = 0.0000 0.0000-0.3936 ( 15392 PWs)   bands (ev):

   -66.8662 -66.8662 -66.8662 -66.8662 -66.8164 -66.8164 -66.8164 -66.8164
   -33.6325 -33.6325 -33.6323 -33.6323 -33.6201 -33.6201 -33.6197 -33.6197
   -33.5996 -33.5996 -33.5994 -33.5994 -33.5901 -33.5901 -33.5898 -33.5898
   -33.5600 -33.5600 -33.5596 -33.5596 -33.5374 -33.5374 -33.5372 -33.5372
   -12.6661 -12.6661 -12.5710 -12.5710 -11.2376 -11.2376 -11.2319 -11.2319
   -11.1339 -11.1339 -10.9141 -10.9141 -10.8318 -10.8318 -10.7409 -10.7409
    -0.1223  -0.1223  -0.1135  -0.1135   0.8444   0.8444   0.8957   0.8957
     1.4797   1.4797   1.8872   1.8872   2.1629   2.1629   2.4830   2.4830
     2.7428   2.7428   2.8821   2.8821   3.2073   3.2073   3.3204   3.3204
     3.3437   3.3437   3.5227   3.5227   3.8153   3.8153   3.8992   3.8992
     4.1896   4.1896   4.3252   4.3252   4.4318   4.4318   4.5725   4.5725
     4.7907   4.7907   4.7982   4.7982   5.0940   5.0940   5.2132   5.2132
    12.0720  12.0720  13.1924  13.1924  13.6841  13.6841  14.7893  14.7893
    15.0431  15.0431  15.8449  15.8449  16.0261  16.0261  16.1214  16.1214
    16.2063  16.2063  16.5612

          k =-0.4953 0.0000 0.0000 ( 15374 PWs)   bands (ev):

   -66.8674 -66.8674 -66.8650 -66.8650 -66.8164 -66.8164 -66.8164 -66.8164
   -33.6522 -33.6522 -33.6223 -33.6223 -33.6182 -33.6182 -33.6118 -33.6118
   -33.6033 -33.6033 -33.5957 -33.5957 -33.5905 -33.5905 -33.5897 -33.5897
   -33.5602 -33.5602 -33.5594 -33.5594 -33.5373 -33.5373 -33.5371 -33.5371
   -12.5210 -12.5210 -12.2083 -12.2083 -11.6828 -11.6828 -11.4396 -11.4396
   -11.0371 -11.0371 -10.8573 -10.8573 -10.8519 -10.8519 -10.8501 -10.8501
    -0.2539  -0.2539  -0.1913  -0.1913   1.2192   1.2192   1.2638   1.2638
     1.7092   1.7092   1.8007   1.8007   1.9602   1.9602   2.2882   2.2882
     2.4054   2.4054   2.5146   2.5146   2.5859   2.5859   3.0077   3.0077
     3.5052   3.5052   3.6641   3.6641   3.9124   3.9124   4.0364   4.0364
     4.5322   4.5322   4.6492   4.6492   4.6939   4.6939   4.8236   4.8236
     5.0152   5.0152   5.0620   5.0620   5.1403   5.1403   5.3509   5.3509
    12.5904  12.5904  13.3131  13.3131  13.6428  13.6428  13.9051  13.9051
    14.2516  14.2516  14.8815  14.8815  15.2140  15.2140  15.8648  15.8648
    16.6698  16.6699  16.8137

          k =-0.4953 0.0000-0.3936 ( 15436 PWs)   bands (ev):

   -66.8662 -66.8662 -66.8662 -66.8662 -66.8165 -66.8165 -66.8164 -66.8164
   -33.6325 -33.6325 -33.6323 -33.6323 -33.6204 -33.6204 -33.6196 -33.6196
   -33.5999 -33.5999 -33.5993 -33.5993 -33.5904 -33.5904 -33.5897 -33.5897
   -33.5600 -33.5600 -33.5596 -33.5596 -33.5373 -33.5373 -33.5372 -33.5372
   -12.3736 -12.3736 -12.3189 -12.3189 -11.5749 -11.5749 -11.5740 -11.5740
   -11.0345 -11.0345 -10.9512 -10.9512 -10.8284 -10.8284 -10.8279 -10.8279
    -0.1074  -0.1074  -0.0135  -0.0135   1.4459   1.4459   1.6589   1.6589
     1.7556   1.7556   1.8694   1.8694   1.9371   1.9371   2.2469   2.2469
     2.3032   2.3032   2.3215   2.3215   2.7916   2.7916   2.8374   2.8374
     3.0224   3.0224   3.4063   3.4063   3.9084   3.9084   3.9618   3.9618
     4.2485   4.2485   4.5854   4.5854   4.6965   4.6965   4.8254   4.8254
     4.9883   4.9883   5.0066   5.0066   5.1798   5.1798   5.2206   5.2206
    13.4259  13.4259  13.5150  13.5150  14.0851  14.0851  14.1414  14.1414
    14.7900  14.7900  15.0467  15.0467  15.3798  15.3798  15.4710  15.4710
    16.2750  16.3750  16.3806

 ------ SPIN DOWN ----------


          k = 0.0000 0.0000 0.0000 ( 15339 PWs)   bands (ev):

   -66.8674 -66.8674 -66.8650 -66.8650 -66.8165 -66.8165 -66.8164 -66.8164
   -33.6524 -33.6520 -33.6227 -33.6216 -33.6184 -33.6181 -33.6118 -33.6118
   -33.6034 -33.6028 -33.5957 -33.5956 -33.5916 -33.5903 -33.5894 -33.5888
   -33.5606 -33.5602 -33.5594 -33.5591 -33.5391 -33.5386 -33.5357 -33.5355
   -12.9600 -12.7379 -12.4528 -12.3156 -11.3288 -11.2765 -11.1807 -11.1397
   -11.1388 -10.9945 -10.9513 -10.9283 -10.8460 -10.8272 -10.7902 -10.7279
    -0.4633  -0.4087   0.0454   0.1220   0.3070   0.4592   1.0057   1.0440
     1.1941   1.5545   1.5779   1.6930   1.9272   2.2669   2.4099   2.5540
     2.7499   3.0240   3.1203   3.1336   3.1414   3.1865   3.2341   3.3497
     3.4909   3.5947   3.7442   3.7545   3.7740   4.0246   4.0404   4.0488
     4.0695   4.3381   4.3707   4.4070   4.4315   4.4985   4.6909   4.7219
     4.7469   4.9007   4.9197   4.9805   5.0712   5.0944   5.2050   5.5714
    10.2547  12.1949  12.6083  13.9281  14.1475  14.1822  14.3450  14.3916
    14.6219  14.8212  14.9256  15.0855  15.2925  15.5952  15.9389  15.9988
    16.1236  16.4898  16.5835

          k = 0.0000 0.0000-0.3936 ( 15392 PWs)   bands (ev):

   -66.8662 -66.8662 -66.8662 -66.8662 -66.8164 -66.8164 -66.8164 -66.8164
   -33.6325 -33.6325 -33.6323 -33.6323 -33.6201 -33.6201 -33.6197 -33.6197
   -33.5996 -33.5996 -33.5994 -33.5994 -33.5901 -33.5901 -33.5898 -33.5898
   -33.5600 -33.5600 -33.5596 -33.5596 -33.5374 -33.5374 -33.5372 -33.5372
   -12.6661 -12.6661 -12.5710 -12.5710 -11.2376 -11.2376 -11.2319 -11.2319
   -11.1339 -11.1339 -10.9141 -10.9141 -10.8318 -10.8318 -10.7409 -10.7409
    -0.1223  -0.1223  -0.1135  -0.1135   0.8444   0.8444   0.8957   0.8957
     1.4797   1.4797   1.8872   1.8872   2.1629   2.1629   2.4830   2.4830
     2.7428   2.7428   2.8821   2.8821   3.2073   3.2073   3.3204   3.3204
     3.3437   3.3437   3.5227   3.5227   3.8153   3.8153   3.8992   3.8992
     4.1896   4.1896   4.3252   4.3252   4.4318   4.4318   4.5725   4.5725
     4.7907   4.7907   4.7982   4.7982   5.0940   5.0940   5.2132   5.2132
    12.0720  12.0720  13.1924  13.1924  13.6841  13.6841  14.7893  14.7893
    15.0431  15.0431  15.8449  15.8449  16.0261  16.0261  16.1214  16.1214
    16.2063  16.2063  16.5612

          k =-0.4953 0.0000 0.0000 ( 15374 PWs)   bands (ev):

   -66.8674 -66.8674 -66.8650 -66.8650 -66.8164 -66.8164 -66.8164 -66.8164
   -33.6522 -33.6522 -33.6223 -33.6223 -33.6182 -33.6182 -33.6118 -33.6118
   -33.6033 -33.6033 -33.5957 -33.5957 -33.5905 -33.5905 -33.5897 -33.5897
   -33.5602 -33.5602 -33.5594 -33.5594 -33.5373 -33.5373 -33.5371 -33.5371
   -12.5210 -12.5210 -12.2083 -12.2083 -11.6828 -11.6828 -11.4396 -11.4396
   -11.0371 -11.0371 -10.8573 -10.8573 -10.8519 -10.8519 -10.8501 -10.8501
    -0.2539  -0.2539  -0.1913  -0.1913   1.2192   1.2192   1.2638   1.2638
     1.7092   1.7092   1.8007   1.8007   1.9602   1.9602   2.2882   2.2882
     2.4054   2.4054   2.5146   2.5146   2.5859   2.5859   3.0077   3.0077
     3.5052   3.5052   3.6641   3.6641   3.9124   3.9124   4.0364   4.0364
     4.5322   4.5322   4.6492   4.6492   4.6939   4.6939   4.8236   4.8236
     5.0152   5.0152   5.0620   5.0620   5.1403   5.1403   5.3509   5.3509
    12.5904  12.5904  13.3131  13.3131  13.6428  13.6428  13.9051  13.9051
    14.2516  14.2516  14.8815  14.8815  15.2140  15.2140  15.8648  15.8648
    16.6698  16.6700  16.8137

          k =-0.4953 0.0000-0.3936 ( 15436 PWs)   bands (ev):

   -66.8662 -66.8662 -66.8662 -66.8662 -66.8165 -66.8165 -66.8164 -66.8164
   -33.6325 -33.6325 -33.6323 -33.6323 -33.6204 -33.6204 -33.6196 -33.6196
   -33.5999 -33.5999 -33.5993 -33.5993 -33.5904 -33.5904 -33.5897 -33.5897
   -33.5600 -33.5600 -33.5596 -33.5596 -33.5373 -33.5373 -33.5372 -33.5372
   -12.3736 -12.3736 -12.3189 -12.3189 -11.5749 -11.5749 -11.5740 -11.5740
   -11.0345 -11.0345 -10.9512 -10.9512 -10.8284 -10.8284 -10.8279 -10.8279
    -0.1074  -0.1074  -0.0135  -0.0135   1.4459   1.4459   1.6589   1.6589
     1.7556   1.7556   1.8694   1.8694   1.9371   1.9371   2.2469   2.2469
     2.3032   2.3032   2.3215   2.3215   2.7916   2.7916   2.8374   2.8374
     3.0224   3.0224   3.4063   3.4063   3.9084   3.9084   3.9618   3.9618
     4.2485   4.2485   4.5854   4.5854   4.6965   4.6965   4.8254   4.8254
     4.9883   4.9883   5.0066   5.0066   5.1798   5.1798   5.2206   5.2206
    13.4259  13.4259  13.5150  13.5150  14.0851  14.0851  14.1414  14.1414
    14.7900  14.7900  15.0467  15.0467  15.3798  15.3798  15.4710  15.4710
    16.2750  16.3728  16.3806

     the Fermi energy is     6.5576 ev

!    total energy              =   -1988.20722862 Ry

     total all-electron energy =     -7937.303081 Ry
     estimated scf accuracy    <          2.1E-09 Ry
     smearing contrib. (-TS)   =      -0.00000000 Ry
     internal energy E=F+TS    =   -1988.20722862 Ry

     The total energy is F=E-TS. E is the sum of the following terms:
     one-electron contribution =    -929.45541366 Ry
     hartree contribution      =     540.30622972 Ry
     xc contribution           =    -288.10428491 Ry
     ewald contribution        =    -895.74692365 Ry
     one-center paw contrib.   =    -415.20683613 Ry

     total magnetization       =     0.00 Bohr mag/cell
     absolute magnetization    =     0.00 Bohr mag/cell

     convergence has been achieved in  14 iterations

     Forces acting on atoms (cartesian axes, Ry/au):

     atom    1 type  1   force =     0.00000000    0.00000000    0.00000000
     atom    2 type  1   force =     0.00000000    0.00000000    0.00000000
     atom    3 type  1   force =     0.00000000    0.00000000    0.00000000
     atom    4 type  1   force =     0.00000000   -0.00000000    0.00000000
     atom    5 type  1   force =    -0.00163168    0.00106496    0.00000000
     atom    6 type  1   force =     0.00163168   -0.00106496    0.00000000
     atom    7 type  1   force =    -0.00163168   -0.00106496    0.00000000
     atom    8 type  1   force =     0.00163168    0.00106496    0.00000000
     atom    9 type  2   force =    -0.00008340   -0.00084585    0.00000000
     atom   10 type  2   force =     0.00008340    0.00084585    0.00000000
     atom   11 type  2   force =    -0.00008340    0.00084585    0.00000000
     atom   12 type  2   force =     0.00008340   -0.00084585    0.00000000
     atom   13 type  3   force =    -0.00126230   -0.00002957    0.00000000
     atom   14 type  3   force =     0.00126230    0.00002957   -0.00000000
     atom   15 type  3   force =    -0.00126230    0.00002957    0.00000000
     atom   16 type  3   force =     0.00126230   -0.00002957    0.00000000
     atom   17 type  3   force =     0.00114008   -0.00074155   -0.00000000
     atom   18 type  3   force =    -0.00114008    0.00074155    0.00000000
     atom   19 type  3   force =     0.00114008    0.00074155    0.00000000
     atom   20 type  3   force =    -0.00114008   -0.00074155    0.00000000
     atom   21 type  3   force =     0.00004297   -0.00040791   -0.00021386
     atom   22 type  3   force =    -0.00004297    0.00040791    0.00021386
     atom   23 type  3   force =     0.00004297    0.00040791    0.00021386
     atom   24 type  3   force =    -0.00004297   -0.00040791   -0.00021386
     atom   25 type  3   force =    -0.00004297    0.00040791   -0.00021386
     atom   26 type  3   force =     0.00004297   -0.00040791    0.00021386
     atom   27 type  3   force =    -0.00004297   -0.00040791    0.00021386
     atom   28 type  3   force =     0.00004297    0.00040791   -0.00021386

     Total force =     0.005793     Total SCF correction =     0.000060


     Computing stress (Cartesian axis) and pressure

          total   stress  (Ry/bohr**3)                   (kbar)     P=        0.83
  -0.00000288   0.00000000   0.00000000           -0.42        0.00        0.00
   0.00000000   0.00001161   0.00000000            0.00        1.71        0.00
   0.00000000   0.00000000   0.00000822            0.00        0.00        1.21

     Energy error            =      1.4E-04
     Gradient error          =      1.6E-03
     Cell gradient error     =      1.2E-05


     number of scf cycles    =  10
     number of bfgs steps    =   9

     enthalpy old            =   -1988.2070873336 Ry
     enthalpy new            =   -1988.2072286219 Ry

     CASE: enthalpy_new < enthalpy_old

     new trust radius        =       0.0069240091 bohr
     new conv_thr            =       0.0000000141 Ry

     new unit-cell volume =   2014.63764 a.u.^3 (   298.53850 Ang^3 )
     density =      3.13022 g/cm^3

CELL_PARAMETERS (angstrom)
   4.799913281   0.000000000   0.000000000
   0.000000000  10.292816827   0.000000000
   0.000000000   0.000000000   6.042723292

ATOMIC_POSITIONS (angstrom)
Mg           -0.0000000000        0.0000000000        0.0000000000
Mg            2.3999566403        5.1464084135       -0.0000000000
Mg            0.0000000000        0.0000000000        3.0213616460
Mg            2.3999566403        5.1464084135        3.0213616460
Mg            0.0489176207        2.8497433368        4.5320424690
Mg            4.7509956600        7.4430734902        1.5106808230
Mg            2.4488742610        2.2966650767        1.5106808230
Mg            2.3510390197        7.9961517503        4.5320424690
Si            0.3588204935        4.1847112178        1.5106808230
Si            4.4410927871        6.1081056092        4.5320424690
Si            2.7587771338        0.9616971957        4.5320424690
Si            2.0411361468        9.3311196313        1.5106808230
O             1.1269671630        0.9450778993        4.5320424690
O             3.6729461177        9.3477389277        1.5106808230
O             3.5269238033        4.2013305142        1.5106808230
O             1.2729894774        6.0914863128        4.5320424690
O             1.3292385996        0.5535263205        1.5106808230
O             3.4706746811        9.7392905065        4.5320424690
O             3.7291952399        4.5928820930        4.5320424690
O             1.0707180408        5.6999347340        1.5106808230
O             1.0753385370        3.4737462327        2.8239783895
O             3.7245747436        6.8190705943        3.2187449024
O             3.4752951773        1.6726621808        3.2187449024
O             1.3246181033        8.6201546462        2.8239783895
O             3.7245747436        6.8190705943        5.8453400355
O             1.0753385370        3.4737462327        0.1973832564
O             1.3246181033        8.6201546462        0.1973832564
O             3.4752951773        1.6726621808        5.8453400355



     Writing output data file ./out/oliv.save/
     NEW-OLD atomic charge density approx. for the potential

     Check: negative core charge=   -0.000009
     extrapolated charge  192.20470, renormalised to  192.00000
     Generating pointlists ...

     total cpu time spent up to now is     7049.2 secs

     Self-consistent Calculation

     iteration #  1     ecut=    60.00 Ry     beta= 0.30
     Davidson diagonalization with overlap
     ethr =  1.00E-06,  avg # of iterations =  6.1

     total cpu time spent up to now is     7113.5 secs

     total energy              =   -1988.20657406 Ry
     estimated scf accuracy    <       0.00056510 Ry

     total magnetization       =    -0.00 Bohr mag/cell
     absolute magnetization    =     0.00 Bohr mag/cell

     iteration #  2     ecut=    60.00 Ry     beta= 0.30
     Davidson diagonalization with overlap
     ethr =  2.94E-07,  avg # of iterations =  5.2

     total cpu time spent up to now is     7169.8 secs

     total energy              =   -1988.20732728 Ry
     estimated scf accuracy    <       0.00032386 Ry

     total magnetization       =    -0.00 Bohr mag/cell
     absolute magnetization    =     0.00 Bohr mag/cell

     iteration #  3     ecut=    60.00 Ry     beta= 0.30
     Davidson diagonalization with overlap
     ethr =  1.69E-07,  avg # of iterations =  2.0

     total cpu time spent up to now is     7196.9 secs

     total energy              =   -1988.20723809 Ry
     estimated scf accuracy    <       0.00016663 Ry

     total magnetization       =    -0.00 Bohr mag/cell
     absolute magnetization    =     0.00 Bohr mag/cell

     iteration #  4     ecut=    60.00 Ry     beta= 0.30
     Davidson diagonalization with overlap
     ethr =  8.68E-08,  avg # of iterations =  4.0

     total cpu time spent up to now is     7239.1 secs

     total energy              =   -1988.20731164 Ry
     estimated scf accuracy    <       0.00003042 Ry

     total magnetization       =     0.00 Bohr mag/cell
     absolute magnetization    =     0.00 Bohr mag/cell

     iteration #  5     ecut=    60.00 Ry     beta= 0.30
     Davidson diagonalization with overlap
     ethr =  1.58E-08,  avg # of iterations =  4.6

     total cpu time spent up to now is     7271.1 secs

     total energy              =   -1988.20732210 Ry
     estimated scf accuracy    <       0.00002857 Ry

     total magnetization       =     0.00 Bohr mag/cell
     absolute magnetization    =     0.00 Bohr mag/cell

     iteration #  6     ecut=    60.00 Ry     beta= 0.30
     Davidson diagonalization with overlap
     ethr =  1.49E-08,  avg # of iterations =  2.0

     total cpu time spent up to now is     7297.2 secs

     total energy              =   -1988.20728887 Ry
     estimated scf accuracy    <       0.00004701 Ry

     total magnetization       =     0.00 Bohr mag/cell
     absolute magnetization    =     0.00 Bohr mag/cell

     iteration #  7     ecut=    60.00 Ry     beta= 0.30
     Davidson diagonalization with overlap
     ethr =  1.49E-08,  avg # of iterations =  4.9

     total cpu time spent up to now is     7342.4 secs

     total energy              =   -1988.20730533 Ry
     estimated scf accuracy    <       0.00004187 Ry

     total magnetization       =     0.00 Bohr mag/cell
     absolute magnetization    =     0.00 Bohr mag/cell

     iteration #  8     ecut=    60.00 Ry     beta= 0.30
     Davidson diagonalization with overlap
     ethr =  1.49E-08,  avg # of iterations =  1.8

     total cpu time spent up to now is     7367.9 secs

     total energy              =   -1988.20730332 Ry
     estimated scf accuracy    <       0.00000893 Ry

     total magnetization       =     0.00 Bohr mag/cell
     absolute magnetization    =     0.00 Bohr mag/cell

     iteration #  9     ecut=    60.00 Ry     beta= 0.30
     Davidson diagonalization with overlap
     ethr =  4.65E-09,  avg # of iterations =  4.0

     total cpu time spent up to now is     7407.6 secs

     total energy              =   -1988.20730975 Ry
     estimated scf accuracy    <       0.00000305 Ry

     total magnetization       =     0.00 Bohr mag/cell
     absolute magnetization    =     0.00 Bohr mag/cell

     iteration # 10     ecut=    60.00 Ry     beta= 0.30
     Davidson diagonalization with overlap
     ethr =  1.59E-09,  avg # of iterations =  2.0

     total cpu time spent up to now is     7435.4 secs

     total energy              =   -1988.20730927 Ry
     estimated scf accuracy    <       0.00000183 Ry

     total magnetization       =     0.00 Bohr mag/cell
     absolute magnetization    =     0.00 Bohr mag/cell

     iteration # 11     ecut=    60.00 Ry     beta= 0.30
     Davidson diagonalization with overlap
     ethr =  9.53E-10,  avg # of iterations =  2.0

     total cpu time spent up to now is     7467.6 secs

     total energy              =   -1988.20730939 Ry
     estimated scf accuracy    <       0.00000032 Ry

     total magnetization       =    -0.00 Bohr mag/cell
     absolute magnetization    =     0.00 Bohr mag/cell

     iteration # 12     ecut=    60.00 Ry     beta= 0.30
     Davidson diagonalization with overlap
     ethr =  1.69E-10,  avg # of iterations =  6.8

     Magnetic moment per site:
     atom:    1    charge:    8.1135    magn:    0.0000    constr:    0.0000
     atom:    2    charge:    8.1135    magn:    0.0000    constr:    0.0000
     atom:    3    charge:    8.1135    magn:    0.0000    constr:    0.0000
     atom:    4    charge:    8.1135    magn:    0.0000    constr:    0.0000
     atom:    5    charge:    8.0866    magn:    0.0000    constr:    0.0000
     atom:    6    charge:    8.0866    magn:    0.0000    constr:    0.0000
     atom:    7    charge:    8.0866    magn:    0.0000    constr:    0.0000
     atom:    8    charge:    8.0866    magn:    0.0000    constr:    0.0000
     atom:    9    charge:    0.3889    magn:    0.0000    constr:    0.0000
     atom:   10    charge:    0.3889    magn:    0.0000    constr:    0.0000
     atom:   11    charge:    0.3889    magn:    0.0000    constr:    0.0000
     atom:   12    charge:    0.3889    magn:    0.0000    constr:    0.0000
     atom:   13    charge:    4.0573    magn:   -0.0000    constr:    0.0000
     atom:   14    charge:    4.0573    magn:   -0.0000    constr:    0.0000
     atom:   15    charge:    4.0573    magn:   -0.0000    constr:    0.0000
     atom:   16    charge:    4.0573    magn:   -0.0000    constr:    0.0000
     atom:   17    charge:    4.0542    magn:   -0.0000    constr:    0.0000
     atom:   18    charge:    4.0542    magn:   -0.0000    constr:    0.0000
     atom:   19    charge:    4.0542    magn:   -0.0000    constr:    0.0000
     atom:   20    charge:    4.0542    magn:   -0.0000    constr:    0.0000
     atom:   21    charge:    4.0426    magn:   -0.0000    constr:    0.0000
     atom:   22    charge:    4.0426    magn:   -0.0000    constr:    0.0000
     atom:   23    charge:    4.0426    magn:   -0.0000    constr:    0.0000
     atom:   24    charge:    4.0426    magn:   -0.0000    constr:    0.0000
     atom:   25    charge:    4.0426    magn:   -0.0000    constr:    0.0000
     atom:   26    charge:    4.0426    magn:   -0.0000    constr:    0.0000
     atom:   27    charge:    4.0426    magn:   -0.0000    constr:    0.0000
     atom:   28    charge:    4.0426    magn:   -0.0000    constr:    0.0000

     total cpu time spent up to now is     7519.2 secs

     End of self-consistent calculation

 ------ SPIN UP ------------


          k = 0.0000 0.0000 0.0000 ( 15339 PWs)   bands (ev):

   -66.8817 -66.8817 -66.8793 -66.8793 -66.8320 -66.8320 -66.8319 -66.8319
   -33.6662 -33.6658 -33.6371 -33.6360 -33.6326 -33.6323 -33.6260 -33.6260
   -33.6177 -33.6172 -33.6101 -33.6100 -33.6072 -33.6058 -33.6050 -33.6044
   -33.5760 -33.5755 -33.5748 -33.5744 -33.5546 -33.5541 -33.5512 -33.5511
   -12.9661 -12.7440 -12.4620 -12.3240 -11.3361 -11.2827 -11.1895 -11.1471
   -11.1453 -11.0048 -10.9568 -10.9391 -10.8526 -10.8330 -10.8004 -10.7386
    -0.4719  -0.4153   0.0343   0.1123   0.3000   0.4540   0.9986   1.0366
     1.1892   1.5453   1.5728   1.6858   1.9201   2.2607   2.4003   2.5433
     2.7450   3.0185   3.1153   3.1251   3.1285   3.1779   3.2237   3.3411
     3.4808   3.5857   3.7322   3.7482   3.7674   4.0206   4.0277   4.0361
     4.0609   4.3334   4.3619   4.3942   4.4220   4.4863   4.6790   4.7120
     4.7318   4.8863   4.9111   4.9729   5.0650   5.0867   5.1963   5.5609
    10.2340  12.1767  12.5806  13.9088  14.1320  14.1835  14.3265  14.3874
    14.5983  14.8106  14.8992  15.0610  15.2738  15.5813  15.9204  15.9736
    16.1029  16.4778  16.5667

          k = 0.0000 0.0000-0.3934 ( 15392 PWs)   bands (ev):

   -66.8805 -66.8805 -66.8805 -66.8805 -66.8320 -66.8320 -66.8320 -66.8320
   -33.6464 -33.6464 -33.6461 -33.6461 -33.6346 -33.6346 -33.6342 -33.6342
   -33.6139 -33.6139 -33.6138 -33.6138 -33.6056 -33.6056 -33.6054 -33.6054
   -33.5753 -33.5753 -33.5749 -33.5749 -33.5529 -33.5529 -33.5528 -33.5528
   -12.6731 -12.6731 -12.5786 -12.5786 -11.2447 -11.2447 -11.2397 -11.2397
   -11.1417 -11.1417 -10.9219 -10.9219 -10.8407 -10.8407 -10.7497 -10.7497
    -0.1310  -0.1310  -0.1225  -0.1225   0.8386   0.8386   0.8883   0.8883
     1.4712   1.4712   1.8805   1.8805   2.1531   2.1531   2.4731   2.4731
     2.7351   2.7351   2.8743   2.8743   3.1987   3.1987   3.3108   3.3108
     3.3358   3.3358   3.5145   3.5145   3.8082   3.8082   3.8885   3.8885
     4.1814   4.1814   4.3151   4.3151   4.4208   4.4208   4.5658   4.5658
     4.7827   4.7827   4.7876   4.7876   5.0848   5.0848   5.2042   5.2042
    12.0511  12.0511  13.1700  13.1700  13.6630  13.6630  14.7757  14.7757
    15.0312  15.0312  15.8348  15.8348  16.0019  16.0019  16.0993  16.0993
    16.1757  16.1757  16.5591

          k =-0.4952 0.0000 0.0000 ( 15374 PWs)   bands (ev):

   -66.8817 -66.8817 -66.8793 -66.8793 -66.8320 -66.8320 -66.8320 -66.8320
   -33.6659 -33.6659 -33.6367 -33.6367 -33.6324 -33.6324 -33.6260 -33.6260
   -33.6177 -33.6177 -33.6101 -33.6101 -33.6061 -33.6061 -33.6053 -33.6053
   -33.5756 -33.5756 -33.5747 -33.5747 -33.5529 -33.5529 -33.5527 -33.5527
   -12.5275 -12.5275 -12.2168 -12.2168 -11.6898 -11.6898 -11.4486 -11.4486
   -11.0422 -11.0422 -10.8678 -10.8678 -10.8624 -10.8624 -10.8559 -10.8559
    -0.2607  -0.2607  -0.1991  -0.1991   1.2138   1.2138   1.2573   1.2573
     1.7021   1.7021   1.7933   1.7933   1.9529   1.9529   2.2783   2.2783
     2.3952   2.3952   2.5073   2.5073   2.5768   2.5768   2.9973   2.9973
     3.4948   3.4948   3.6549   3.6549   3.8983   3.8983   4.0301   4.0301
     4.5232   4.5232   4.6348   4.6348   4.6872   4.6872   4.8147   4.8147
     5.0067   5.0067   5.0548   5.0548   5.1298   5.1298   5.3411   5.3411
    12.5668  12.5668  13.2939  13.2939  13.6198  13.6198  13.9024  13.9024
    14.2367  14.2367  14.8648  14.8648  15.1924  15.1924  15.8460  15.8460
    16.6510  16.6517  16.8023

          k =-0.4952 0.0000-0.3934 ( 15436 PWs)   bands (ev):

   -66.8805 -66.8805 -66.8805 -66.8805 -66.8320 -66.8320 -66.8320 -66.8320
   -33.6463 -33.6463 -33.6462 -33.6462 -33.6349 -33.6349 -33.6340 -33.6340
   -33.6143 -33.6143 -33.6137 -33.6137 -33.6059 -33.6059 -33.6052 -33.6052
   -33.5753 -33.5753 -33.5749 -33.5749 -33.5529 -33.5529 -33.5527 -33.5527
   -12.3809 -12.3809 -12.3266 -12.3266 -11.5830 -11.5830 -11.5818 -11.5818
   -11.0403 -11.0403 -10.9597 -10.9597 -10.8380 -10.8380 -10.8357 -10.8357
    -0.1144  -0.1144  -0.0215  -0.0215   1.4366   1.4366   1.6505   1.6505
     1.7483   1.7483   1.8600   1.8600   1.9310   1.9310   2.2396   2.2396
     2.2947   2.2947   2.3126   2.3126   2.7818   2.7818   2.8279   2.8279
     3.0155   3.0155   3.3970   3.3970   3.8985   3.8985   3.9514   3.9514
     4.2401   4.2401   4.5755   4.5755   4.6862   4.6862   4.8175   4.8175
     4.9812   4.9812   4.9966   4.9966   5.1710   5.1710   5.2111   5.2111
    13.4012  13.4012  13.4950  13.4950  14.0738  14.0738  14.1243  14.1243
    14.7754  14.7754  15.0217  15.0217  15.3679  15.3679  15.4481  15.4481
    16.2561  16.3552  16.3639

 ------ SPIN DOWN ----------


          k = 0.0000 0.0000 0.0000 ( 15339 PWs)   bands (ev):

   -66.8817 -66.8817 -66.8793 -66.8793 -66.8320 -66.8320 -66.8319 -66.8319
   -33.6662 -33.6658 -33.6371 -33.6360 -33.6326 -33.6323 -33.6260 -33.6260
   -33.6177 -33.6172 -33.6101 -33.6100 -33.6072 -33.6058 -33.6050 -33.6044
   -33.5760 -33.5755 -33.5748 -33.5744 -33.5546 -33.5541 -33.5512 -33.5511
   -12.9661 -12.7440 -12.4620 -12.3240 -11.3361 -11.2827 -11.1895 -11.1471
   -11.1453 -11.0048 -10.9568 -10.9391 -10.8527 -10.8330 -10.8004 -10.7386
    -0.4719  -0.4153   0.0343   0.1123   0.3000   0.4540   0.9986   1.0366
     1.1892   1.5453   1.5728   1.6858   1.9201   2.2607   2.4003   2.5433
     2.7450   3.0185   3.1153   3.1251   3.1285   3.1779   3.2237   3.3411
     3.4808   3.5857   3.7322   3.7482   3.7674   4.0206   4.0277   4.0361
     4.0609   4.3334   4.3618   4.3942   4.4220   4.4863   4.6790   4.7120
     4.7318   4.8863   4.9110   4.9729   5.0650   5.0867   5.1963   5.5609
    10.2340  12.1767  12.5806  13.9088  14.1320  14.1835  14.3265  14.3874
    14.5983  14.8106  14.8992  15.0610  15.2738  15.5813  15.9204  15.9736
    16.1029  16.4778  16.5668

          k = 0.0000 0.0000-0.3934 ( 15392 PWs)   bands (ev):

   -66.8805 -66.8805 -66.8805 -66.8805 -66.8320 -66.8320 -66.8320 -66.8320
   -33.6464 -33.6464 -33.6461 -33.6461 -33.6346 -33.6346 -33.6342 -33.6342
   -33.6139 -33.6139 -33.6138 -33.6138 -33.6056 -33.6056 -33.6054 -33.6054
   -33.5753 -33.5753 -33.5749 -33.5749 -33.5529 -33.5529 -33.5528 -33.5528
   -12.6731 -12.6731 -12.5786 -12.5786 -11.2447 -11.2447 -11.2397 -11.2397
   -11.1417 -11.1417 -10.9219 -10.9219 -10.8407 -10.8407 -10.7497 -10.7497
    -0.1310  -0.1310  -0.1225  -0.1225   0.8386   0.8386   0.8883   0.8883
     1.4712   1.4712   1.8805   1.8805   2.1531   2.1531   2.4731   2.4731
     2.7351   2.7351   2.8743   2.8743   3.1987   3.1987   3.3108   3.3108
     3.3358   3.3358   3.5145   3.5145   3.8081   3.8081   3.8885   3.8885
     4.1814   4.1814   4.3150   4.3150   4.4208   4.4208   4.5658   4.5658
     4.7827   4.7827   4.7876   4.7876   5.0848   5.0848   5.2042   5.2042
    12.0511  12.0511  13.1700  13.1700  13.6630  13.6630  14.7757  14.7757
    15.0312  15.0312  15.8348  15.8348  16.0019  16.0019  16.0993  16.0993
    16.1757  16.1757  16.5591

          k =-0.4952 0.0000 0.0000 ( 15374 PWs)   bands (ev):

   -66.8817 -66.8817 -66.8793 -66.8793 -66.8320 -66.8320 -66.8320 -66.8320
   -33.6659 -33.6659 -33.6367 -33.6367 -33.6324 -33.6324 -33.6260 -33.6260
   -33.6177 -33.6177 -33.6101 -33.6101 -33.6061 -33.6061 -33.6053 -33.6053
   -33.5756 -33.5756 -33.5747 -33.5747 -33.5529 -33.5529 -33.5527 -33.5527
   -12.5275 -12.5275 -12.2168 -12.2168 -11.6898 -11.6898 -11.4486 -11.4486
   -11.0422 -11.0422 -10.8678 -10.8678 -10.8624 -10.8624 -10.8559 -10.8559
    -0.2607  -0.2607  -0.1992  -0.1992   1.2138   1.2138   1.2573   1.2573
     1.7021   1.7021   1.7933   1.7933   1.9529   1.9529   2.2783   2.2783
     2.3952   2.3952   2.5073   2.5073   2.5768   2.5768   2.9973   2.9973
     3.4948   3.4948   3.6549   3.6549   3.8983   3.8983   4.0301   4.0301
     4.5232   4.5232   4.6348   4.6348   4.6872   4.6872   4.8147   4.8147
     5.0067   5.0067   5.0547   5.0547   5.1298   5.1298   5.3411   5.3411
    12.5668  12.5668  13.2939  13.2939  13.6198  13.6198  13.9024  13.9024
    14.2367  14.2367  14.8648  14.8648  15.1925  15.1925  15.8460  15.8460
    16.6510  16.6519  16.8023

          k =-0.4952 0.0000-0.3934 ( 15436 PWs)   bands (ev):

   -66.8805 -66.8805 -66.8805 -66.8805 -66.8320 -66.8320 -66.8320 -66.8320
   -33.6463 -33.6463 -33.6462 -33.6462 -33.6349 -33.6349 -33.6340 -33.6340
   -33.6143 -33.6143 -33.6137 -33.6137 -33.6059 -33.6059 -33.6052 -33.6052
   -33.5753 -33.5753 -33.5749 -33.5749 -33.5529 -33.5529 -33.5527 -33.5527
   -12.3809 -12.3809 -12.3266 -12.3266 -11.5830 -11.5830 -11.5819 -11.5819
   -11.0403 -11.0403 -10.9597 -10.9597 -10.8381 -10.8381 -10.8357 -10.8357
    -0.1144  -0.1144  -0.0215  -0.0215   1.4366   1.4366   1.6505   1.6505
     1.7483   1.7483   1.8600   1.8600   1.9309   1.9309   2.2396   2.2396
     2.2947   2.2947   2.3126   2.3126   2.7818   2.7818   2.8279   2.8279
     3.0155   3.0155   3.3970   3.3970   3.8985   3.8985   3.9513   3.9513
     4.2401   4.2401   4.5755   4.5755   4.6862   4.6862   4.8175   4.8175
     4.9812   4.9812   4.9966   4.9966   5.1710   5.1710   5.2111   5.2111
    13.4012  13.4012  13.4950  13.4950  14.0738  14.0738  14.1243  14.1243
    14.7754  14.7754  15.0217  15.0217  15.3679  15.3679  15.4481  15.4481
    16.2561  16.3515  16.3639

     the Fermi energy is     6.5458 ev

!    total energy              =   -1988.20730958 Ry

     total all-electron energy =     -7937.303162 Ry
     estimated scf accuracy    <          6.9E-09 Ry
     smearing contrib. (-TS)   =      -0.00000000 Ry
     internal energy E=F+TS    =   -1988.20730958 Ry

     The total energy is F=E-TS. E is the sum of the following terms:
     one-electron contribution =    -930.03765101 Ry
     hartree contribution      =     540.51285385 Ry
     xc contribution           =    -288.09124836 Ry
     ewald contribution        =    -895.38480297 Ry
     one-center paw contrib.   =    -415.20646109 Ry

     total magnetization       =    -0.00 Bohr mag/cell
     absolute magnetization    =     0.00 Bohr mag/cell

     convergence has been achieved in  12 iterations

     Forces acting on atoms (cartesian axes, Ry/au):

     atom    1 type  1   force =     0.00000000    0.00000000   -0.00000000
     atom    2 type  1   force =    -0.00000000    0.00000000   -0.00000000
     atom    3 type  1   force =     0.00000000    0.00000000    0.00000000
     atom    4 type  1   force =     0.00000000    0.00000000    0.00000000
     atom    5 type  1   force =    -0.00102734    0.00123018    0.00000000
     atom    6 type  1   force =     0.00102734   -0.00123018   -0.00000000
     atom    7 type  1   force =    -0.00102734   -0.00123018    0.00000000
     atom    8 type  1   force =     0.00102734    0.00123018    0.00000000
     atom    9 type  2   force =     0.00037175    0.00033486   -0.00000000
     atom   10 type  2   force =    -0.00037175   -0.00033486    0.00000000
     atom   11 type  2   force =     0.00037175   -0.00033486    0.00000000
     atom   12 type  2   force =    -0.00037175    0.00033486    0.00000000
     atom   13 type  3   force =    -0.00067968   -0.00012015    0.00000000
     atom   14 type  3   force =     0.00067968    0.00012015   -0.00000000
     atom   15 type  3   force =    -0.00067968    0.00012015    0.00000000
     atom   16 type  3   force =     0.00067968   -0.00012015    0.00000000
     atom   17 type  3   force =     0.00120551    0.00016621    0.00000000
     atom   18 type  3   force =    -0.00120551   -0.00016621    0.00000000
     atom   19 type  3   force =     0.00120551   -0.00016621    0.00000000
     atom   20 type  3   force =    -0.00120551    0.00016621   -0.00000000
     atom   21 type  3   force =    -0.00038043   -0.00089208   -0.00035786
     atom   22 type  3   force =     0.00038043    0.00089208    0.00035786
     atom   23 type  3   force =    -0.00038043    0.00089208    0.00035786
     atom   24 type  3   force =     0.00038043   -0.00089208   -0.00035786
     atom   25 type  3   force =     0.00038043    0.00089208   -0.00035786
     atom   26 type  3   force =    -0.00038043   -0.00089208    0.00035786
     atom   27 type  3   force =     0.00038043   -0.00089208    0.00035786
     atom   28 type  3   force =    -0.00038043    0.00089208   -0.00035786

     Total force =     0.005259     Total SCF correction =     0.000197


     Computing stress (Cartesian axis) and pressure

          total   stress  (Ry/bohr**3)                   (kbar)     P=       -0.60
  -0.00001446   0.00000000   0.00000000           -2.13        0.00        0.00
   0.00000000   0.00000838   0.00000000            0.00        1.23        0.00
   0.00000000   0.00000000  -0.00000606            0.00        0.00       -0.89

     Energy error            =      8.1E-05
     Gradient error          =      1.2E-03
     Cell gradient error     =      1.4E-05


     number of scf cycles    =  11
     number of bfgs steps    =  10

     enthalpy old            =   -1988.2072286219 Ry
     enthalpy new            =   -1988.2073095784 Ry

     CASE: enthalpy_new < enthalpy_old

     new trust radius        =       0.0053242713 bohr
     new conv_thr            =       0.0000000081 Ry

     new unit-cell volume =   2015.03246 a.u.^3 (   298.59700 Ang^3 )
     density =      3.12961 g/cm^3

CELL_PARAMETERS (angstrom)
   4.798374286   0.000000000   0.000000000
   0.000000000  10.297155830   0.000000000
   0.000000000   0.000000000   6.043298399

ATOMIC_POSITIONS (angstrom)
Mg           -0.0000000000        0.0000000000        0.0000000000
Mg            2.3991871432        5.1485779149       -0.0000000000
Mg            0.0000000000        0.0000000000        3.0216491993
Mg            2.3991871432        5.1485779149        3.0216491993
Mg            0.0463801561        2.8522000859        4.5324737989
Mg            4.7519941304        7.4449557439        1.5108245996
Mg            2.4455672993        2.2963778290        1.5108245996
Mg            2.3528069872        8.0007780009        4.5324737989
Si            0.3579674168        4.1850452331        1.5108245996
Si            4.4404068697        6.1121105968        4.5324737989
Si            2.7571545600        0.9635326818        4.5324737989
Si            2.0412197265        9.3336231480        1.5108245996
O             1.1255466741        0.9464509668        4.5324737989
O             3.6728276123        9.3507048631        1.5108245996
O             3.5247338174        4.2021269482        1.5108245996
O             1.2736404691        6.0950288817        4.5324737989
O             1.3299545749        0.5517442723        1.5108245996
O             3.4684197115        9.7454115575        4.5324737989
O             3.7291417182        4.5968336426        4.5324737989
O             1.0692325683        5.7003221873        1.5108245996
O             1.0745977314        3.4744763471        2.8242033607
O             3.7237765551        6.8226794828        3.2190950378
O             3.4737848746        1.6741015678        3.2190950378
O             1.3245894119        8.6230542620        2.8242033607
O             3.7237765551        6.8226794828        5.8458525600
O             1.0745977314        3.4744763471        0.1974458385
O             1.3245894119        8.6230542620        0.1974458385
O             3.4737848746        1.6741015678        5.8458525600



     Writing output data file ./out/oliv.save/
     NEW-OLD atomic charge density approx. for the potential

     Check: negative core charge=   -0.000009
     extrapolated charge  192.03762, renormalised to  192.00000
     Generating pointlists ...

     total cpu time spent up to now is     7555.1 secs

     Self-consistent Calculation

     iteration #  1     ecut=    60.00 Ry     beta= 0.30
     Davidson diagonalization with overlap
     ethr =  1.00E-06,  avg # of iterations =  5.1

     Threshold (ethr) on eigenvalues was too large:
     Diagonalizing with lowered threshold

     Davidson diagonalization with overlap
     ethr =  1.50E-08,  avg # of iterations =  7.5

     total cpu time spent up to now is     7640.0 secs

     total energy              =   -1988.20733831 Ry
     estimated scf accuracy    <       0.00003303 Ry

     total magnetization       =     0.00 Bohr mag/cell
     absolute magnetization    =     0.00 Bohr mag/cell

     iteration #  2     ecut=    60.00 Ry     beta= 0.30
     Davidson diagonalization with overlap
     c_bands:  1 eigenvalues not converged
     ethr =  1.72E-08,  avg # of iterations =  5.6

     total cpu time spent up to now is     7673.0 secs

     total energy              =   -1988.20736111 Ry
     estimated scf accuracy    <       0.00001249 Ry

     total magnetization       =     0.00 Bohr mag/cell
     absolute magnetization    =     0.00 Bohr mag/cell

     iteration #  3     ecut=    60.00 Ry     beta= 0.30
     Davidson diagonalization with overlap
     ethr =  6.51E-09,  avg # of iterations =  3.5

     total cpu time spent up to now is     7698.0 secs

     total energy              =   -1988.20735954 Ry
     estimated scf accuracy    <       0.00000694 Ry

     total magnetization       =    -0.00 Bohr mag/cell
     absolute magnetization    =     0.00 Bohr mag/cell

     iteration #  4     ecut=    60.00 Ry     beta= 0.30
     Davidson diagonalization with overlap
     ethr =  3.62E-09,  avg # of iterations =  4.1

     total cpu time spent up to now is     7734.4 secs

     total energy              =   -1988.20736281 Ry
     estimated scf accuracy    <       0.00000229 Ry

     total magnetization       =    -0.00 Bohr mag/cell
     absolute magnetization    =     0.00 Bohr mag/cell

     iteration #  5     ecut=    60.00 Ry     beta= 0.30
     Davidson diagonalization with overlap
     ethr =  1.19E-09,  avg # of iterations =  2.0

     total cpu time spent up to now is     7758.7 secs

     total energy              =   -1988.20736181 Ry
     estimated scf accuracy    <       0.00000151 Ry

     total magnetization       =     0.00 Bohr mag/cell
     absolute magnetization    =     0.00 Bohr mag/cell

     iteration #  6     ecut=    60.00 Ry     beta= 0.30
     Davidson diagonalization with overlap
     ethr =  7.87E-10,  avg # of iterations =  5.2

     total cpu time spent up to now is     7807.0 secs

     total energy              =   -1988.20736243 Ry
     estimated scf accuracy    <       0.00000261 Ry

     total magnetization       =     0.00 Bohr mag/cell
     absolute magnetization    =     0.00 Bohr mag/cell

     iteration #  7     ecut=    60.00 Ry     beta= 0.30
     Davidson diagonalization with overlap
     ethr =  7.87E-10,  avg # of iterations =  2.1

     total cpu time spent up to now is     7830.8 secs

     total energy              =   -1988.20736232 Ry
     estimated scf accuracy    <       0.00000060 Ry

     total magnetization       =    -0.00 Bohr mag/cell
     absolute magnetization    =     0.00 Bohr mag/cell

     iteration #  8     ecut=    60.00 Ry     beta= 0.30
     Davidson diagonalization with overlap
     ethr =  3.11E-10,  avg # of iterations =  5.0

     total cpu time spent up to now is     7860.4 secs

     total energy              =   -1988.20736267 Ry
     estimated scf accuracy    <       0.00000006 Ry

     total magnetization       =    -0.00 Bohr mag/cell
     absolute magnetization    =     0.00 Bohr mag/cell

     iteration #  9     ecut=    60.00 Ry     beta= 0.30
     Davidson diagonalization with overlap
     ethr =  3.14E-11,  avg # of iterations =  7.5

     total cpu time spent up to now is     7891.7 secs

     total energy              =   -1988.20736269 Ry
     estimated scf accuracy    <       0.00000004 Ry

     total magnetization       =     0.00 Bohr mag/cell
     absolute magnetization    =     0.00 Bohr mag/cell

     iteration # 10     ecut=    60.00 Ry     beta= 0.30
     Davidson diagonalization with overlap
     ethr =  2.18E-11,  avg # of iterations =  1.8

     total cpu time spent up to now is     7911.9 secs

     total energy              =   -1988.20736269 Ry
     estimated scf accuracy    <       0.00000002 Ry

     total magnetization       =     0.00 Bohr mag/cell
     absolute magnetization    =     0.00 Bohr mag/cell

     iteration # 11     ecut=    60.00 Ry     beta= 0.30
     Davidson diagonalization with overlap
     ethr =  1.03E-11,  avg # of iterations =  3.5

     Magnetic moment per site:
     atom:    1    charge:    8.1133    magn:    0.0000    constr:    0.0000
     atom:    2    charge:    8.1133    magn:    0.0000    constr:    0.0000
     atom:    3    charge:    8.1133    magn:    0.0000    constr:    0.0000
     atom:    4    charge:    8.1133    magn:    0.0000    constr:    0.0000
     atom:    5    charge:    8.0865    magn:    0.0000    constr:    0.0000
     atom:    6    charge:    8.0865    magn:    0.0000    constr:    0.0000
     atom:    7    charge:    8.0865    magn:    0.0000    constr:    0.0000
     atom:    8    charge:    8.0865    magn:    0.0000    constr:    0.0000
     atom:    9    charge:    0.3889    magn:    0.0000    constr:    0.0000
     atom:   10    charge:    0.3889    magn:    0.0000    constr:    0.0000
     atom:   11    charge:    0.3889    magn:    0.0000    constr:    0.0000
     atom:   12    charge:    0.3889    magn:    0.0000    constr:    0.0000
     atom:   13    charge:    4.0574    magn:   -0.0000    constr:    0.0000
     atom:   14    charge:    4.0574    magn:   -0.0000    constr:    0.0000
     atom:   15    charge:    4.0574    magn:   -0.0000    constr:    0.0000
     atom:   16    charge:    4.0574    magn:   -0.0000    constr:    0.0000
     atom:   17    charge:    4.0545    magn:   -0.0000    constr:    0.0000
     atom:   18    charge:    4.0545    magn:   -0.0000    constr:    0.0000
     atom:   19    charge:    4.0545    magn:   -0.0000    constr:    0.0000
     atom:   20    charge:    4.0545    magn:   -0.0000    constr:    0.0000
     atom:   21    charge:    4.0426    magn:   -0.0000    constr:    0.0000
     atom:   22    charge:    4.0426    magn:   -0.0000    constr:    0.0000
     atom:   23    charge:    4.0426    magn:   -0.0000    constr:    0.0000
     atom:   24    charge:    4.0426    magn:   -0.0000    constr:    0.0000
     atom:   25    charge:    4.0426    magn:   -0.0000    constr:    0.0000
     atom:   26    charge:    4.0426    magn:   -0.0000    constr:    0.0000
     atom:   27    charge:    4.0426    magn:   -0.0000    constr:    0.0000
     atom:   28    charge:    4.0426    magn:   -0.0000    constr:    0.0000

     total cpu time spent up to now is     7937.6 secs

     End of self-consistent calculation

 ------ SPIN UP ------------


          k = 0.0000 0.0000 0.0000 ( 15339 PWs)   bands (ev):

   -66.8863 -66.8863 -66.8839 -66.8839 -66.8332 -66.8332 -66.8331 -66.8331
   -33.6706 -33.6701 -33.6417 -33.6407 -33.6372 -33.6369 -33.6305 -33.6305
   -33.6223 -33.6217 -33.6147 -33.6146 -33.6083 -33.6071 -33.6061 -33.6056
   -33.5771 -33.5767 -33.5760 -33.5757 -33.5557 -33.5552 -33.5523 -33.5522
   -12.9681 -12.7462 -12.4651 -12.3269 -11.3367 -11.2844 -11.1909 -11.1484
   -11.1472 -11.0061 -10.9595 -10.9407 -10.8562 -10.8355 -10.8012 -10.7396
    -0.4719  -0.4152   0.0327   0.1116   0.2987   0.4525   0.9979   1.0353
     1.1874   1.5403   1.5700   1.6855   1.9166   2.2607   2.3945   2.5418
     2.7445   3.0175   3.1134   3.1244   3.1276   3.1772   3.2218   3.3404
     3.4774   3.5830   3.7302   3.7486   3.7662   4.0208   4.0247   4.0357
     4.0606   4.3316   4.3616   4.3915   4.4208   4.4826   4.6762   4.7130
     4.7282   4.8833   4.9088   4.9699   5.0632   5.0834   5.1947   5.5577
    10.2304  12.1737  12.5747  13.9044  14.1304  14.1873  14.3230  14.3908
    14.5943  14.8117  14.8967  15.0543  15.2706  15.5820  15.9203  15.9720
    16.0998  16.4750  16.5628

          k = 0.0000 0.0000-0.3933 ( 15392 PWs)   bands (ev):

   -66.8851 -66.8851 -66.8851 -66.8851 -66.8331 -66.8331 -66.8331 -66.8331
   -33.6507 -33.6507 -33.6505 -33.6505 -33.6393 -33.6393 -33.6389 -33.6389
   -33.6185 -33.6185 -33.6183 -33.6183 -33.6069 -33.6069 -33.6066 -33.6066
   -33.5765 -33.5765 -33.5762 -33.5762 -33.5540 -33.5540 -33.5539 -33.5539
   -12.6755 -12.6755 -12.5813 -12.5813 -11.2468 -11.2468 -11.2406 -11.2406
   -11.1429 -11.1429 -10.9236 -10.9236 -10.8433 -10.8433 -10.7513 -10.7513
    -0.1317  -0.1317  -0.1229  -0.1229   0.8368   0.8368   0.8863   0.8863
     1.4693   1.4693   1.8794   1.8794   2.1500   2.1500   2.4698   2.4698
     2.7319   2.7319   2.8735   2.8735   3.1981   3.1981   3.3104   3.3104
     3.3341   3.3341   3.5135   3.5135   3.8061   3.8061   3.8857   3.8857
     4.1803   4.1803   4.3148   4.3148   4.4183   4.4183   4.5654   4.5654
     4.7805   4.7805   4.7869   4.7869   5.0823   5.0823   5.2008   5.2008
    12.0480  12.0480  13.1674  13.1674  13.6591  13.6591  14.7755  14.7755
    15.0286  15.0286  15.8338  15.8338  15.9985  15.9985  16.0962  16.0962
    16.1669  16.1669  16.5592

          k =-0.4954 0.0000 0.0000 ( 15374 PWs)   bands (ev):

   -66.8863 -66.8863 -66.8839 -66.8839 -66.8331 -66.8331 -66.8331 -66.8331
   -33.6703 -33.6703 -33.6413 -33.6413 -33.6371 -33.6371 -33.6305 -33.6305
   -33.6222 -33.6222 -33.6147 -33.6147 -33.6072 -33.6072 -33.6065 -33.6065
   -33.5768 -33.5768 -33.5760 -33.5760 -33.5540 -33.5540 -33.5538 -33.5538
   -12.5295 -12.5295 -12.2192 -12.2192 -11.6909 -11.6909 -11.4504 -11.4504
   -11.0451 -11.0451 -10.8690 -10.8690 -10.8636 -10.8636 -10.8590 -10.8590
    -0.2621  -0.2621  -0.2001  -0.2001   1.2124   1.2124   1.2560   1.2560
     1.7008   1.7008   1.7945   1.7945   1.9513   1.9513   2.2729   2.2729
     2.3935   2.3935   2.5059   2.5059   2.5748   2.5748   2.9966   2.9966
     3.4905   3.4905   3.6540   3.6540   3.8950   3.8950   4.0295   4.0295
     4.5222   4.5222   4.6313   4.6313   4.6865   4.6865   4.8139   4.8139
     5.0047   5.0047   5.0531   5.0531   5.1286   5.1286   5.3387   5.3387
    12.5621  12.5621  13.2898  13.2898  13.6162  13.6162  13.9067  13.9067
    14.2371  14.2371  14.8626  14.8626  15.1907  15.1907  15.8437  15.8437
    16.6501  16.6506  16.7993

          k =-0.4954 0.0000-0.3933 ( 15436 PWs)   bands (ev):

   -66.8851 -66.8851 -66.8851 -66.8851 -66.8331 -66.8331 -66.8331 -66.8331
   -33.6507 -33.6507 -33.6505 -33.6505 -33.6396 -33.6396 -33.6388 -33.6388
   -33.6188 -33.6188 -33.6182 -33.6182 -33.6071 -33.6071 -33.6065 -33.6065
   -33.5765 -33.5765 -33.5762 -33.5762 -33.5540 -33.5540 -33.5538 -33.5538
   -12.3831 -12.3831 -12.3289 -12.3289 -11.5843 -11.5843 -11.5832 -11.5832
   -11.0429 -11.0429 -10.9616 -10.9616 -10.8395 -10.8395 -10.8381 -10.8381
    -0.1159  -0.1159  -0.0228  -0.0228   1.4349   1.4349   1.6481   1.6481
     1.7459   1.7459   1.8567   1.8567   1.9317   1.9317   2.2402   2.2402
     2.2942   2.2942   2.3107   2.3107   2.7797   2.7797   2.8267   2.8267
     3.0119   3.0119   3.3960   3.3960   3.8955   3.8955   3.9489   3.9489
     4.2380   4.2380   4.5729   4.5729   4.6845   4.6845   4.8160   4.8160
     4.9815   4.9815   4.9962   4.9962   5.1703   5.1703   5.2081   5.2081
    13.3969  13.3969  13.4919  13.4919  14.0745  14.0745  14.1234  14.1234
    14.7746  14.7746  15.0171  15.0171  15.3690  15.3690  15.4451  15.4451
    16.2500  16.3485  16.3625

 ------ SPIN DOWN ----------


          k = 0.0000 0.0000 0.0000 ( 15339 PWs)   bands (ev):

   -66.8863 -66.8863 -66.8839 -66.8839 -66.8332 -66.8332 -66.8331 -66.8331
   -33.6705 -33.6701 -33.6417 -33.6407 -33.6372 -33.6369 -33.6305 -33.6305
   -33.6223 -33.6217 -33.6147 -33.6146 -33.6083 -33.6071 -33.6061 -33.6056
   -33.5771 -33.5767 -33.5760 -33.5757 -33.5557 -33.5552 -33.5523 -33.5522
   -12.9681 -12.7462 -12.4651 -12.3269 -11.3367 -11.2844 -11.1909 -11.1484
   -11.1472 -11.0061 -10.9595 -10.9407 -10.8562 -10.8355 -10.8012 -10.7396
    -0.4719  -0.4152   0.0327   0.1116   0.2987   0.4525   0.9979   1.0353
     1.1874   1.5403   1.5700   1.6855   1.9166   2.2607   2.3945   2.5418
     2.7445   3.0175   3.1134   3.1244   3.1276   3.1772   3.2218   3.3404
     3.4774   3.5830   3.7302   3.7486   3.7662   4.0208   4.0247   4.0357
     4.0606   4.3316   4.3616   4.3915   4.4208   4.4826   4.6762   4.7130
     4.7282   4.8833   4.9088   4.9699   5.0632   5.0834   5.1947   5.5577
    10.2304  12.1737  12.5747  13.9044  14.1304  14.1873  14.3230  14.3908
    14.5943  14.8117  14.8967  15.0543  15.2706  15.5820  15.9203  15.9720
    16.0998  16.4750  16.5628

          k = 0.0000 0.0000-0.3933 ( 15392 PWs)   bands (ev):

   -66.8851 -66.8851 -66.8851 -66.8851 -66.8331 -66.8331 -66.8331 -66.8331
   -33.6507 -33.6507 -33.6505 -33.6505 -33.6393 -33.6393 -33.6389 -33.6389
   -33.6185 -33.6185 -33.6183 -33.6183 -33.6069 -33.6069 -33.6066 -33.6066
   -33.5765 -33.5765 -33.5762 -33.5762 -33.5540 -33.5540 -33.5539 -33.5539
   -12.6755 -12.6755 -12.5813 -12.5813 -11.2468 -11.2468 -11.2406 -11.2406
   -11.1429 -11.1429 -10.9236 -10.9236 -10.8433 -10.8433 -10.7513 -10.7513
    -0.1317  -0.1317  -0.1229  -0.1229   0.8368   0.8368   0.8863   0.8863
     1.4693   1.4693   1.8794   1.8794   2.1500   2.1500   2.4698   2.4698
     2.7319   2.7319   2.8735   2.8735   3.1981   3.1981   3.3104   3.3104
     3.3341   3.3341   3.5135   3.5135   3.8061   3.8061   3.8857   3.8857
     4.1803   4.1803   4.3148   4.3148   4.4183   4.4183   4.5654   4.5654
     4.7805   4.7805   4.7869   4.7869   5.0823   5.0823   5.2008   5.2008
    12.0480  12.0480  13.1674  13.1674  13.6591  13.6591  14.7755  14.7755
    15.0286  15.0286  15.8338  15.8338  15.9985  15.9985  16.0962  16.0962
    16.1669  16.1669  16.5592

          k =-0.4954 0.0000 0.0000 ( 15374 PWs)   bands (ev):

   -66.8863 -66.8863 -66.8839 -66.8839 -66.8331 -66.8331 -66.8331 -66.8331
   -33.6703 -33.6703 -33.6413 -33.6413 -33.6371 -33.6371 -33.6305 -33.6305
   -33.6222 -33.6222 -33.6147 -33.6147 -33.6072 -33.6072 -33.6065 -33.6065
   -33.5768 -33.5768 -33.5760 -33.5760 -33.5540 -33.5540 -33.5538 -33.5538
   -12.5295 -12.5295 -12.2192 -12.2192 -11.6909 -11.6909 -11.4504 -11.4504
   -11.0451 -11.0451 -10.8690 -10.8690 -10.8636 -10.8636 -10.8590 -10.8590
    -0.2621  -0.2621  -0.2001  -0.2001   1.2124   1.2124   1.2560   1.2560
     1.7008   1.7008   1.7945   1.7945   1.9513   1.9513   2.2729   2.2729
     2.3935   2.3935   2.5059   2.5059   2.5748   2.5748   2.9966   2.9966
     3.4905   3.4905   3.6540   3.6540   3.8951   3.8951   4.0295   4.0295
     4.5222   4.5222   4.6313   4.6313   4.6865   4.6865   4.8139   4.8139
     5.0047   5.0047   5.0531   5.0531   5.1286   5.1286   5.3387   5.3387
    12.5621  12.5621  13.2898  13.2898  13.6162  13.6162  13.9067  13.9067
    14.2371  14.2371  14.8626  14.8626  15.1907  15.1907  15.8437  15.8437
    16.6501  16.6507  16.7993

          k =-0.4954 0.0000-0.3933 ( 15436 PWs)   bands (ev):

   -66.8851 -66.8851 -66.8851 -66.8851 -66.8331 -66.8331 -66.8331 -66.8331
   -33.6507 -33.6507 -33.6505 -33.6505 -33.6396 -33.6396 -33.6388 -33.6388
   -33.6188 -33.6188 -33.6182 -33.6182 -33.6071 -33.6071 -33.6065 -33.6065
   -33.5765 -33.5765 -33.5762 -33.5762 -33.5540 -33.5540 -33.5538 -33.5538
   -12.3831 -12.3831 -12.3289 -12.3289 -11.5843 -11.5843 -11.5832 -11.5832
   -11.0429 -11.0429 -10.9616 -10.9616 -10.8395 -10.8395 -10.8381 -10.8381
    -0.1159  -0.1159  -0.0228  -0.0228   1.4349   1.4349   1.6481   1.6481
     1.7459   1.7459   1.8567   1.8567   1.9317   1.9317   2.2402   2.2402
     2.2942   2.2942   2.3107   2.3107   2.7797   2.7797   2.8267   2.8267
     3.0119   3.0119   3.3960   3.3960   3.8955   3.8955   3.9489   3.9489
     4.2380   4.2380   4.5729   4.5729   4.6845   4.6845   4.8160   4.8160
     4.9815   4.9815   4.9962   4.9962   5.1703   5.1703   5.2081   5.2081
    13.3969  13.3969  13.4919  13.4919  14.0745  14.0745  14.1234  14.1234
    14.7746  14.7746  15.0171  15.0171  15.3690  15.3690  15.4451  15.4451
    16.2500  16.2501  16.3625

     the Fermi energy is     6.5427 ev

!    total energy              =   -1988.20736270 Ry

     total all-electron energy =     -7937.303215 Ry
     estimated scf accuracy    <          3.4E-10 Ry
     smearing contrib. (-TS)   =      -0.00000000 Ry
     internal energy E=F+TS    =   -1988.20736270 Ry

     The total energy is F=E-TS. E is the sum of the following terms:
     one-electron contribution =    -930.13691152 Ry
     hartree contribution      =     540.54808144 Ry
     xc contribution           =    -288.09140886 Ry
     ewald contribution        =    -895.32052502 Ry
     one-center paw contrib.   =    -415.20659874 Ry

     total magnetization       =    -0.00 Bohr mag/cell
     absolute magnetization    =     0.00 Bohr mag/cell

     convergence has been achieved in  11 iterations

     Forces acting on atoms (cartesian axes, Ry/au):

     atom    1 type  1   force =     0.00000000    0.00000000    0.00000000
     atom    2 type  1   force =     0.00000000    0.00000000    0.00000000
     atom    3 type  1   force =     0.00000000   -0.00000000    0.00000000
     atom    4 type  1   force =    -0.00000000    0.00000000    0.00000000
     atom    5 type  1   force =    -0.00058783    0.00099929    0.00000000
     atom    6 type  1   force =     0.00058783   -0.00099929    0.00000000
     atom    7 type  1   force =    -0.00058783   -0.00099929    0.00000000
     atom    8 type  1   force =     0.00058783    0.00099929    0.00000000
     atom    9 type  2   force =     0.00045601    0.00044834    0.00000000
     atom   10 type  2   force =    -0.00045601   -0.00044834    0.00000000
     atom   11 type  2   force =     0.00045601   -0.00044834    0.00000000
     atom   12 type  2   force =    -0.00045601    0.00044834   -0.00000000
     atom   13 type  3   force =    -0.00076464   -0.00025158    0.00000000
     atom   14 type  3   force =     0.00076464    0.00025158    0.00000000
     atom   15 type  3   force =    -0.00076464    0.00025158    0.00000000
     atom   16 type  3   force =     0.00076464   -0.00025158    0.00000000
     atom   17 type  3   force =     0.00083179    0.00060337    0.00000000
     atom   18 type  3   force =    -0.00083179   -0.00060337    0.00000000
     atom   19 type  3   force =     0.00083179   -0.00060337    0.00000000
     atom   20 type  3   force =    -0.00083179    0.00060337    0.00000000
     atom   21 type  3   force =    -0.00045554   -0.00091041   -0.00028003
     atom   22 type  3   force =     0.00045554    0.00091041    0.00028003
     atom   23 type  3   force =    -0.00045554    0.00091041    0.00028003
     atom   24 type  3   force =     0.00045554   -0.00091041   -0.00028003
     atom   25 type  3   force =     0.00045554    0.00091041   -0.00028003
     atom   26 type  3   force =    -0.00045554   -0.00091041    0.00028003
     atom   27 type  3   force =     0.00045554   -0.00091041    0.00028003
     atom   28 type  3   force =    -0.00045554    0.00091041   -0.00028003

     Total force =     0.004769     Total SCF correction =     0.000049


     Computing stress (Cartesian axis) and pressure

          total   stress  (Ry/bohr**3)                   (kbar)     P=       -0.52
  -0.00000963   0.00000000   0.00000000           -1.42        0.00        0.00
   0.00000000   0.00000773   0.00000000            0.00        1.14        0.00
   0.00000000   0.00000000  -0.00000875            0.00        0.00       -1.29

     Energy error            =      5.3E-05
     Gradient error          =      1.0E-03
     Cell gradient error     =      9.6E-06


     number of scf cycles    =  12
     number of bfgs steps    =  11

     enthalpy old            =   -1988.2073095784 Ry
     enthalpy new            =   -1988.2073626963 Ry

     CASE: enthalpy_new < enthalpy_old

     new trust radius        =       0.0079850225 bohr
     new conv_thr            =       0.0000000053 Ry

     new unit-cell volume =   2015.20616 a.u.^3 (   298.62274 Ang^3 )
     density =      3.12934 g/cm^3

CELL_PARAMETERS (angstrom)
   4.795407646   0.000000000   0.000000000
   0.000000000  10.305564700   0.000000000
   0.000000000   0.000000000   6.042623784

ATOMIC_POSITIONS (angstrom)
Mg           -0.0000000000       -0.0000000000        0.0000000000
Mg            2.3977038232        5.1527823502        0.0000000000
Mg            0.0000000000        0.0000000000        3.0213118922
Mg            2.3977038232        5.1527823502        3.0213118922
Mg            0.0427875556        2.8567977072        4.5319678382
Mg            4.7526200908        7.4487669932        1.5106559461
Mg            2.4404913788        2.2959846430        1.5106559461
Mg            2.3549162676        8.0095800573        4.5319678382
Si            0.3569217604        4.1869107914        1.5106559461
Si            4.4384858860        6.1186539089        4.5319678382
Si            2.7546255836        0.9658715588        4.5319678382
Si            2.0407820628        9.3396931416        1.5106559461
O             1.1228710428        0.9481231325        4.5319678382
O             3.6725366036        9.3574415679        1.5106559461
O             3.5205748660        4.2046592177        1.5106559461
O             1.2748327804        6.1009054826        4.5319678382
O             1.3311223347        0.5501029212        1.5106559461
O             3.4642853117        9.7554617791        4.5319678382
O             3.7288261579        4.6026794290        4.5319678382
O             1.0665814885        5.7028852714        1.5106559461
O             1.0731669451        3.4757598494        2.8236568522
O             3.7222407012        6.8298048510        3.2189669321
O             3.4708707683        1.6770225008        3.2189669321
O             1.3245368780        8.6285421996        2.8236568522
O             3.7222407012        6.8298048510        5.8449687444
O             1.0731669451        3.4757598494        0.1976550399
O             1.3245368780        8.6285421996        0.1976550399
O             3.4708707683        1.6770225008        5.8449687444



     Writing output data file ./out/oliv.save/
     NEW-OLD atomic charge density approx. for the potential

     Check: negative core charge=   -0.000009
     extrapolated charge  192.01655, renormalised to  192.00000
     Generating pointlists ...

     total cpu time spent up to now is     7970.0 secs

     Self-consistent Calculation

     iteration #  1     ecut=    60.00 Ry     beta= 0.30
     Davidson diagonalization with overlap
     ethr =  1.00E-06,  avg # of iterations =  6.1

     Threshold (ethr) on eigenvalues was too large:
     Diagonalizing with lowered threshold

     Davidson diagonalization with overlap
     ethr =  1.87E-08,  avg # of iterations =  8.4

     total cpu time spent up to now is     8052.6 secs

     total energy              =   -1988.20741576 Ry
     estimated scf accuracy    <       0.00003946 Ry

     total magnetization       =    -0.00 Bohr mag/cell
     absolute magnetization    =     0.00 Bohr mag/cell

     iteration #  2     ecut=    60.00 Ry     beta= 0.30
     Davidson diagonalization with overlap
     c_bands:  1 eigenvalues not converged
     ethr =  2.06E-08,  avg # of iterations =  4.2

     total cpu time spent up to now is     8077.7 secs

     total energy              =   -1988.20741739 Ry
     estimated scf accuracy    <       0.00001530 Ry

     total magnetization       =     0.00 Bohr mag/cell
     absolute magnetization    =     0.00 Bohr mag/cell

     iteration #  3     ecut=    60.00 Ry     beta= 0.30
     Davidson diagonalization with overlap
     ethr =  7.97E-09,  avg # of iterations =  2.1

     total cpu time spent up to now is     8102.8 secs

     total energy              =   -1988.20742039 Ry
     estimated scf accuracy    <       0.00000214 Ry

     total magnetization       =     0.00 Bohr mag/cell
     absolute magnetization    =     0.00 Bohr mag/cell

     iteration #  4     ecut=    60.00 Ry     beta= 0.30
     Davidson diagonalization with overlap
     ethr =  1.12E-09,  avg # of iterations =  4.9

     total cpu time spent up to now is     8137.8 secs

     total energy              =   -1988.20742166 Ry
     estimated scf accuracy    <       0.00000042 Ry

     total magnetization       =     0.00 Bohr mag/cell
     absolute magnetization    =     0.00 Bohr mag/cell

     iteration #  5     ecut=    60.00 Ry     beta= 0.30
     Davidson diagonalization with overlap
     ethr =  2.18E-10,  avg # of iterations =  7.8

     total cpu time spent up to now is     8167.4 secs

     total energy              =   -1988.20742185 Ry
     estimated scf accuracy    <       0.00000008 Ry

     total magnetization       =    -0.00 Bohr mag/cell
     absolute magnetization    =     0.00 Bohr mag/cell

     iteration #  6     ecut=    60.00 Ry     beta= 0.30
     Davidson diagonalization with overlap
     ethr =  4.20E-11,  avg # of iterations =  7.1

     total cpu time spent up to now is     8201.2 secs

     total energy              =   -1988.20742189 Ry
     estimated scf accuracy    <       0.00000002 Ry

     total magnetization       =     0.00 Bohr mag/cell
     absolute magnetization    =     0.00 Bohr mag/cell

     iteration #  7     ecut=    60.00 Ry     beta= 0.30
     Davidson diagonalization with overlap
     ethr =  9.12E-12,  avg # of iterations =  5.1

     total cpu time spent up to now is     8236.6 secs

     total energy              =   -1988.20742189 Ry
     estimated scf accuracy    <       0.00000001 Ry

     total magnetization       =     0.00 Bohr mag/cell
     absolute magnetization    =     0.00 Bohr mag/cell

     iteration #  8     ecut=    60.00 Ry     beta= 0.30
     Davidson diagonalization with overlap
     ethr =  5.57E-12,  avg # of iterations =  2.8

     Magnetic moment per site:
     atom:    1    charge:    8.1131    magn:    0.0000    constr:    0.0000
     atom:    2    charge:    8.1131    magn:    0.0000    constr:    0.0000
     atom:    3    charge:    8.1131    magn:    0.0000    constr:    0.0000
     atom:    4    charge:    8.1131    magn:    0.0000    constr:    0.0000
     atom:    5    charge:    8.0867    magn:    0.0000    constr:    0.0000
     atom:    6    charge:    8.0867    magn:    0.0000    constr:    0.0000
     atom:    7    charge:    8.0867    magn:    0.0000    constr:    0.0000
     atom:    8    charge:    8.0867    magn:    0.0000    constr:    0.0000
     atom:    9    charge:    0.3889    magn:    0.0000    constr:    0.0000
     atom:   10    charge:    0.3889    magn:    0.0000    constr:    0.0000
     atom:   11    charge:    0.3889    magn:    0.0000    constr:    0.0000
     atom:   12    charge:    0.3889    magn:    0.0000    constr:    0.0000
     atom:   13    charge:    4.0574    magn:   -0.0000    constr:    0.0000
     atom:   14    charge:    4.0574    magn:   -0.0000    constr:    0.0000
     atom:   15    charge:    4.0574    magn:   -0.0000    constr:    0.0000
     atom:   16    charge:    4.0574    magn:   -0.0000    constr:    0.0000
     atom:   17    charge:    4.0549    magn:    0.0000    constr:    0.0000
     atom:   18    charge:    4.0549    magn:    0.0000    constr:    0.0000
     atom:   19    charge:    4.0549    magn:    0.0000    constr:    0.0000
     atom:   20    charge:    4.0549    magn:    0.0000    constr:    0.0000
     atom:   21    charge:    4.0426    magn:   -0.0000    constr:    0.0000
     atom:   22    charge:    4.0426    magn:   -0.0000    constr:    0.0000
     atom:   23    charge:    4.0426    magn:   -0.0000    constr:    0.0000
     atom:   24    charge:    4.0426    magn:   -0.0000    constr:    0.0000
     atom:   25    charge:    4.0426    magn:   -0.0000    constr:    0.0000
     atom:   26    charge:    4.0426    magn:   -0.0000    constr:    0.0000
     atom:   27    charge:    4.0426    magn:   -0.0000    constr:    0.0000
     atom:   28    charge:    4.0426    magn:   -0.0000    constr:    0.0000

     total cpu time spent up to now is     8262.2 secs

     End of self-consistent calculation

 ------ SPIN UP ------------


          k = 0.0000 0.0000 0.0000 ( 15339 PWs)   bands (ev):

   -66.8917 -66.8917 -66.8893 -66.8893 -66.8301 -66.8301 -66.8300 -66.8300
   -33.6757 -33.6753 -33.6471 -33.6463 -33.6428 -33.6426 -33.6357 -33.6357
   -33.6273 -33.6268 -33.6199 -33.6199 -33.6052 -33.6043 -33.6030 -33.6027
   -33.5742 -33.5738 -33.5731 -33.5730 -33.5526 -33.5521 -33.5492 -33.5490
   -12.9691 -12.7473 -12.4668 -12.3282 -11.3341 -11.2847 -11.1890 -11.1493
   -11.1464 -11.0056 -10.9640 -10.9407 -10.8619 -10.8396 -10.7998 -10.7386
    -0.4689  -0.4131   0.0331   0.1133   0.2984   0.4503   0.9981   1.0345
     1.1853   1.5329   1.5662   1.6873   1.9115   2.2625   2.3854   2.5430
     2.7450   3.0176   3.1109   3.1253   3.1302   3.1794   3.2227   3.3419
     3.4743   3.5791   3.7302   3.7521   3.7662   4.0209   4.0231   4.0404
     4.0624   4.3280   4.3646   4.3908   4.4212   4.4808   4.6746   4.7185
     4.7266   4.8827   4.9059   4.9656   5.0610   5.0780   5.1943   5.5541
    10.2289  12.1714  12.5723  13.9020  14.1312  14.1887  14.3187  14.3932
    14.5942  14.8163  14.8993  15.0486  15.2687  15.5872  15.9223  15.9774
    16.1012  16.4707  16.5593

          k = 0.0000 0.0000-0.3934 ( 15392 PWs)   bands (ev):

   -66.8905 -66.8905 -66.8905 -66.8905 -66.8300 -66.8300 -66.8300 -66.8300
   -33.6558 -33.6558 -33.6556 -33.6556 -33.6448 -33.6448 -33.6446 -33.6446
   -33.6236 -33.6236 -33.6234 -33.6234 -33.6039 -33.6039 -33.6036 -33.6036
   -33.5736 -33.5736 -33.5734 -33.5734 -33.5509 -33.5509 -33.5507 -33.5507
   -12.6766 -12.6766 -12.5826 -12.5826 -11.2473 -11.2473 -11.2384 -11.2384
   -11.1431 -11.1431 -10.9257 -10.9257 -10.8457 -10.8457 -10.7523 -10.7523
    -0.1305  -0.1305  -0.1204  -0.1204   0.8342   0.8342   0.8842   0.8842
     1.4688   1.4688   1.8797   1.8797   2.1474   2.1474   2.4664   2.4664
     2.7276   2.7276   2.8737   2.8737   3.2006   3.2006   3.3134   3.3134
     3.3333   3.3333   3.5144   3.5144   3.8051   3.8051   3.8833   3.8833
     4.1809   4.1809   4.3178   4.3178   4.4166   4.4166   4.5657   4.5657
     4.7779   4.7779   4.7888   4.7888   5.0795   5.0795   5.1958   5.1958
    12.0472  12.0472  13.1678  13.1678  13.6566  13.6566  14.7767  14.7767
    15.0249  15.0249  15.8325  15.8325  15.9997  15.9997  16.0955  16.0955
    16.1611  16.1611  16.5547

          k =-0.4957 0.0000 0.0000 ( 15374 PWs)   bands (ev):

   -66.8917 -66.8917 -66.8893 -66.8893 -66.8300 -66.8300 -66.8300 -66.8300
   -33.6755 -33.6755 -33.6468 -33.6468 -33.6427 -33.6427 -33.6357 -33.6357
   -33.6273 -33.6273 -33.6199 -33.6199 -33.6041 -33.6041 -33.6036 -33.6036
   -33.5738 -33.5738 -33.5732 -33.5732 -33.5508 -33.5508 -33.5506 -33.5506
   -12.5300 -12.5300 -12.2202 -12.2202 -11.6888 -11.6888 -11.4493 -11.4493
   -11.0499 -11.0499 -10.8682 -10.8682 -10.8640 -10.8640 -10.8628 -10.8628
    -0.2638  -0.2638  -0.2002  -0.2002   1.2119   1.2119   1.2555   1.2555
     1.7002   1.7002   1.7996   1.7996   1.9511   1.9511   2.2652   2.2652
     2.3934   2.3934   2.5065   2.5065   2.5741   2.5741   2.9986   2.9986
     3.4853   3.4853   3.6553   3.6553   3.8937   3.8937   4.0293   4.0293
     4.5234   4.5234   4.6304   4.6304   4.6861   4.6861   4.8152   4.8152
     5.0028   5.0028   5.0511   5.0511   5.1291   5.1291   5.3367   5.3367
    12.5604  12.5604  13.2868  13.2868  13.6153  13.6153  13.9110  13.9110
    14.2404  14.2404  14.8611  14.8611  15.1934  15.1934  15.8430  15.8430
    16.6514  16.6516  16.7942

          k =-0.4957 0.0000-0.3934 ( 15436 PWs)   bands (ev):

   -66.8905 -66.8905 -66.8905 -66.8905 -66.8300 -66.8300 -66.8300 -66.8300
   -33.6558 -33.6558 -33.6557 -33.6557 -33.6451 -33.6451 -33.6445 -33.6445
   -33.6239 -33.6239 -33.6234 -33.6234 -33.6041 -33.6041 -33.6036 -33.6036
   -33.5736 -33.5736 -33.5734 -33.5734 -33.5508 -33.5508 -33.5507 -33.5507
   -12.3839 -12.3839 -12.3297 -12.3297 -11.5825 -11.5825 -11.5814 -11.5814
   -11.0470 -11.0470 -10.9633 -10.9633 -10.8409 -10.8409 -10.8397 -10.8397
    -0.1180  -0.1180  -0.0236  -0.0236   1.4351   1.4351   1.6468   1.6468
     1.7438   1.7438   1.8542   1.8542   1.9360   1.9360   2.2436   2.2436
     2.2960   2.2960   2.3095   2.3095   2.7784   2.7784   2.8277   2.8277
     3.0067   3.0067   3.3971   3.3971   3.8927   3.8927   3.9474   3.9474
     4.2363   4.2363   4.5707   4.5707   4.6844   4.6844   4.8148   4.8148
     4.9833   4.9833   4.9981   4.9981   5.1707   5.1707   5.2041   5.2041
    13.3965  13.3965  13.4903  13.4903  14.0754  14.0754  14.1252  14.1252
    14.7747  14.7747  15.0169  15.0169  15.3702  15.3702  15.4471  15.4471
    16.2430  16.2433  16.3630

 ------ SPIN DOWN ----------


          k = 0.0000 0.0000 0.0000 ( 15339 PWs)   bands (ev):

   -66.8917 -66.8917 -66.8893 -66.8893 -66.8301 -66.8301 -66.8300 -66.8300
   -33.6757 -33.6753 -33.6471 -33.6463 -33.6428 -33.6426 -33.6357 -33.6357
   -33.6273 -33.6268 -33.6199 -33.6199 -33.6052 -33.6043 -33.6030 -33.6027
   -33.5742 -33.5738 -33.5731 -33.5730 -33.5526 -33.5521 -33.5492 -33.5490
   -12.9691 -12.7473 -12.4668 -12.3282 -11.3341 -11.2847 -11.1890 -11.1493
   -11.1464 -11.0056 -10.9640 -10.9407 -10.8619 -10.8396 -10.7998 -10.7386
    -0.4689  -0.4131   0.0331   0.1133   0.2984   0.4503   0.9981   1.0345
     1.1853   1.5329   1.5662   1.6873   1.9115   2.2625   2.3854   2.5430
     2.7450   3.0176   3.1109   3.1253   3.1302   3.1794   3.2227   3.3419
     3.4743   3.5791   3.7302   3.7521   3.7662   4.0209   4.0231   4.0404
     4.0624   4.3280   4.3646   4.3908   4.4212   4.4808   4.6746   4.7185
     4.7266   4.8827   4.9059   4.9656   5.0610   5.0780   5.1943   5.5541
    10.2289  12.1714  12.5723  13.9020  14.1312  14.1887  14.3187  14.3932
    14.5942  14.8163  14.8993  15.0486  15.2687  15.5872  15.9223  15.9774
    16.1012  16.4707  16.5593

          k = 0.0000 0.0000-0.3934 ( 15392 PWs)   bands (ev):

   -66.8905 -66.8905 -66.8905 -66.8905 -66.8300 -66.8300 -66.8300 -66.8300
   -33.6558 -33.6558 -33.6556 -33.6556 -33.6448 -33.6448 -33.6446 -33.6446
   -33.6236 -33.6236 -33.6234 -33.6234 -33.6039 -33.6039 -33.6036 -33.6036
   -33.5736 -33.5736 -33.5734 -33.5734 -33.5509 -33.5509 -33.5507 -33.5507
   -12.6766 -12.6766 -12.5826 -12.5826 -11.2473 -11.2473 -11.2384 -11.2384
   -11.1431 -11.1431 -10.9257 -10.9257 -10.8457 -10.8457 -10.7523 -10.7523
    -0.1305  -0.1305  -0.1204  -0.1204   0.8342   0.8342   0.8842   0.8842
     1.4688   1.4688   1.8797   1.8797   2.1474   2.1474   2.4664   2.4664
     2.7276   2.7276   2.8737   2.8737   3.2006   3.2006   3.3134   3.3134
     3.3333   3.3333   3.5144   3.5144   3.8051   3.8051   3.8833   3.8833
     4.1810   4.1810   4.3178   4.3178   4.4166   4.4166   4.5657   4.5657
     4.7779   4.7779   4.7888   4.7888   5.0795   5.0795   5.1958   5.1958
    12.0472  12.0472  13.1678  13.1678  13.6566  13.6566  14.7767  14.7767
    15.0249  15.0249  15.8325  15.8325  15.9997  15.9997  16.0955  16.0955
    16.1611  16.1611  16.5547

          k =-0.4957 0.0000 0.0000 ( 15374 PWs)   bands (ev):

   -66.8917 -66.8917 -66.8893 -66.8893 -66.8300 -66.8300 -66.8300 -66.8300
   -33.6755 -33.6755 -33.6468 -33.6468 -33.6427 -33.6427 -33.6357 -33.6357
   -33.6273 -33.6273 -33.6199 -33.6199 -33.6041 -33.6041 -33.6036 -33.6036
   -33.5738 -33.5738 -33.5732 -33.5732 -33.5508 -33.5508 -33.5506 -33.5506
   -12.5300 -12.5300 -12.2202 -12.2202 -11.6888 -11.6888 -11.4493 -11.4493
   -11.0499 -11.0499 -10.8682 -10.8682 -10.8640 -10.8640 -10.8628 -10.8628
    -0.2638  -0.2638  -0.2002  -0.2002   1.2119   1.2119   1.2555   1.2555
     1.7002   1.7002   1.7996   1.7996   1.9511   1.9511   2.2652   2.2652
     2.3934   2.3934   2.5065   2.5065   2.5741   2.5741   2.9986   2.9986
     3.4853   3.4853   3.6553   3.6553   3.8937   3.8937   4.0293   4.0293
     4.5234   4.5234   4.6304   4.6304   4.6861   4.6861   4.8152   4.8152
     5.0028   5.0028   5.0511   5.0511   5.1291   5.1291   5.3367   5.3367
    12.5604  12.5604  13.2868  13.2868  13.6153  13.6153  13.9110  13.9110
    14.2404  14.2404  14.8611  14.8611  15.1934  15.1934  15.8430  15.8430
    16.6514  16.6517  16.7942

          k =-0.4957 0.0000-0.3934 ( 15436 PWs)   bands (ev):

   -66.8905 -66.8905 -66.8905 -66.8905 -66.8300 -66.8300 -66.8300 -66.8300
   -33.6558 -33.6558 -33.6557 -33.6557 -33.6451 -33.6451 -33.6445 -33.6445
   -33.6239 -33.6239 -33.6234 -33.6234 -33.6041 -33.6041 -33.6036 -33.6036
   -33.5736 -33.5736 -33.5734 -33.5734 -33.5508 -33.5508 -33.5507 -33.5507
   -12.3839 -12.3839 -12.3297 -12.3297 -11.5825 -11.5825 -11.5814 -11.5814
   -11.0470 -11.0470 -10.9633 -10.9633 -10.8409 -10.8409 -10.8397 -10.8397
    -0.1180  -0.1180  -0.0236  -0.0236   1.4351   1.4351   1.6468   1.6468
     1.7438   1.7438   1.8542   1.8542   1.9360   1.9360   2.2436   2.2436
     2.2960   2.2960   2.3095   2.3095   2.7784   2.7784   2.8277   2.8277
     3.0067   3.0067   3.3971   3.3971   3.8927   3.8927   3.9474   3.9474
     4.2363   4.2363   4.5707   4.5707   4.6844   4.6844   4.8148   4.8148
     4.9833   4.9833   4.9981   4.9981   5.1707   5.1707   5.2041   5.2041
    13.3965  13.3965  13.4903  13.4903  14.0754  14.0754  14.1252  14.1252
    14.7747  14.7747  15.0169  15.0169  15.3702  15.3702  15.4471  15.4471
    16.2430  16.2430  16.3630

     the Fermi energy is     6.5376 ev

!    total energy              =   -1988.20742190 Ry

     total all-electron energy =     -7937.303275 Ry
     estimated scf accuracy    <          1.5E-09 Ry
     smearing contrib. (-TS)   =      -0.00000000 Ry
     internal energy E=F+TS    =   -1988.20742190 Ry

     The total energy is F=E-TS. E is the sum of the following terms:
     one-electron contribution =    -930.14694716 Ry
     hartree contribution      =     540.54841424 Ry
     xc contribution           =    -288.09231818 Ry
     ewald contribution        =    -895.30981890 Ry
     one-center paw contrib.   =    -415.20675189 Ry

     total magnetization       =     0.00 Bohr mag/cell
     absolute magnetization    =     0.00 Bohr mag/cell

     convergence has been achieved in   8 iterations

     Forces acting on atoms (cartesian axes, Ry/au):

     atom    1 type  1   force =     0.00000000    0.00000000    0.00000000
     atom    2 type  1   force =     0.00000000    0.00000000   -0.00000000
     atom    3 type  1   force =     0.00000000    0.00000000    0.00000000
     atom    4 type  1   force =    -0.00000000    0.00000000    0.00000000
     atom    5 type  1   force =     0.00002722    0.00036062    0.00000000
     atom    6 type  1   force =    -0.00002722   -0.00036062   -0.00000000
     atom    7 type  1   force =     0.00002722   -0.00036062   -0.00000000
     atom    8 type  1   force =    -0.00002722    0.00036062    0.00000000
     atom    9 type  2   force =    -0.00011580    0.00042806   -0.00000000
     atom   10 type  2   force =     0.00011580   -0.00042806    0.00000000
     atom   11 type  2   force =    -0.00011580   -0.00042806    0.00000000
     atom   12 type  2   force =     0.00011580    0.00042806    0.00000000
     atom   13 type  3   force =    -0.00035344   -0.00044772    0.00000000
     atom   14 type  3   force =     0.00035344    0.00044772   -0.00000000
     atom   15 type  3   force =    -0.00035344    0.00044772    0.00000000
     atom   16 type  3   force =     0.00035344   -0.00044772    0.00000000
     atom   17 type  3   force =     0.00021103    0.00043181    0.00000000
     atom   18 type  3   force =    -0.00021103   -0.00043181    0.00000000
     atom   19 type  3   force =     0.00021103   -0.00043181    0.00000000
     atom   20 type  3   force =    -0.00021103    0.00043181    0.00000000
     atom   21 type  3   force =    -0.00043211   -0.00056638   -0.00006649
     atom   22 type  3   force =     0.00043211    0.00056638    0.00006649
     atom   23 type  3   force =    -0.00043211    0.00056638    0.00006649
     atom   24 type  3   force =     0.00043211   -0.00056638   -0.00006649
     atom   25 type  3   force =     0.00043211    0.00056638   -0.00006649
     atom   26 type  3   force =    -0.00043211   -0.00056638    0.00006649
     atom   27 type  3   force =     0.00043211   -0.00056638    0.00006649
     atom   28 type  3   force =    -0.00043211    0.00056638   -0.00006649

     Total force =     0.002762     Total SCF correction =     0.000083


     Computing stress (Cartesian axis) and pressure

          total   stress  (Ry/bohr**3)                   (kbar)     P=       -0.31
  -0.00000140   0.00000000   0.00000000           -0.21        0.00        0.00
   0.00000000   0.00000252   0.00000000            0.00        0.37        0.00
   0.00000000   0.00000000  -0.00000743            0.00        0.00       -1.09

     Energy error            =      5.9E-05
     Gradient error          =      5.7E-04
     Cell gradient error     =      7.4E-06


     number of scf cycles    =  13
     number of bfgs steps    =  12

     enthalpy old            =   -1988.2073626963 Ry
     enthalpy new            =   -1988.2074218995 Ry

     CASE: enthalpy_new < enthalpy_old

     new trust radius        =       0.0028828257 bohr
     new conv_thr            =       0.0000000057 Ry

     new unit-cell volume =   2014.89290 a.u.^3 (   298.57632 Ang^3 )
     density =      3.12982 g/cm^3

CELL_PARAMETERS (angstrom)
   4.794264383   0.000000000   0.000000000
   0.000000000  10.308873728   0.000000000
   0.000000000   0.000000000   6.041185421

ATOMIC_POSITIONS (angstrom)
Mg           -0.0000000000       -0.0000000000        0.0000000000
Mg            2.3971321915        5.1544368642        0.0000000000
Mg            0.0000000000        0.0000000000        3.0205927104
Mg            2.3971321915        5.1544368642        3.0205927104
Mg            0.0417886730        2.8586325962        4.5308890655
Mg            4.7524757099        7.4502411322        1.5102963552
Mg            2.4389208645        2.2958042680        1.5102963552
Mg            2.3553435185        8.0130694604        4.5308890655
Si            0.3564848520        4.1881581400        1.5102963552
Si            4.4377795310        6.1207155884        4.5308890655
Si            2.7536170435        0.9662787242        4.5308890655
Si            2.0406473395        9.3425950042        1.5102963552
O             1.1217978093        0.9482807537        4.5308890655
O             3.6724665736        9.3605929747        1.5102963552
O             3.5189300008        4.2061561105        1.5102963552
O             1.2753343821        6.1027176179        4.5308890655
O             1.3315778684        0.5499938720        1.5102963552
O             3.4626865145        9.7588798564        4.5308890655
O             3.7287100599        4.6044429922        4.5308890655
O             1.0655543231        5.7044307362        1.5102963552
O             1.0724308164        3.4760543632        2.8228564592
O             3.7218335666        6.8328193652        3.2183289616
O             3.4695630079        1.6783825010        3.2183289616
O             1.3247013751        8.6304912274        2.8228564592
O             3.7218335666        6.8328193652        5.8434491695
O             1.0724308164        3.4760543632        0.1977362512
O             1.3247013751        8.6304912274        0.1977362512
O             3.4695630079        1.6783825010        5.8434491695



     Writing output data file ./out/oliv.save/
     NEW-OLD atomic charge density approx. for the potential

     Check: negative core charge=   -0.000009
     extrapolated charge  191.97015, renormalised to  192.00000
     Generating pointlists ...

     total cpu time spent up to now is     8292.9 secs

     Self-consistent Calculation

     iteration #  1     ecut=    60.00 Ry     beta= 0.30
     Davidson diagonalization with overlap
     ethr =  1.00E-06,  avg # of iterations =  5.2

     Threshold (ethr) on eigenvalues was too large:
     Diagonalizing with lowered threshold

     Davidson diagonalization with overlap
     ethr =  9.27E-09,  avg # of iterations = 12.5

     total cpu time spent up to now is     8377.7 secs

     total energy              =   -1988.20742060 Ry
     estimated scf accuracy    <       0.00001844 Ry

     total magnetization       =    -0.00 Bohr mag/cell
     absolute magnetization    =     0.00 Bohr mag/cell

     iteration #  2     ecut=    60.00 Ry     beta= 0.30
     Davidson diagonalization with overlap
     ethr =  9.61E-09,  avg # of iterations =  5.0

     total cpu time spent up to now is     8414.0 secs

     total energy              =   -1988.20743530 Ry
     estimated scf accuracy    <       0.00000620 Ry

     total magnetization       =    -0.00 Bohr mag/cell
     absolute magnetization    =     0.00 Bohr mag/cell

     iteration #  3     ecut=    60.00 Ry     beta= 0.30
     Davidson diagonalization with overlap
     ethr =  3.23E-09,  avg # of iterations =  6.1

     total cpu time spent up to now is     8442.1 secs

     total energy              =   -1988.20743458 Ry
     estimated scf accuracy    <       0.00000418 Ry

     total magnetization       =    -0.00 Bohr mag/cell
     absolute magnetization    =     0.00 Bohr mag/cell

     iteration #  4     ecut=    60.00 Ry     beta= 0.30
     Davidson diagonalization with overlap
     ethr =  2.18E-09,  avg # of iterations =  4.6

     total cpu time spent up to now is     8473.1 secs

     total energy              =   -1988.20743616 Ry
     estimated scf accuracy    <       0.00000085 Ry

     total magnetization       =     0.00 Bohr mag/cell
     absolute magnetization    =     0.00 Bohr mag/cell

     iteration #  5     ecut=    60.00 Ry     beta= 0.30
     Davidson diagonalization with overlap
     ethr =  4.44E-10,  avg # of iterations =  4.9

     total cpu time spent up to now is     8499.9 secs

     total energy              =   -1988.20743571 Ry
     estimated scf accuracy    <       0.00000106 Ry

     total magnetization       =     0.00 Bohr mag/cell
     absolute magnetization    =     0.00 Bohr mag/cell

     iteration #  6     ecut=    60.00 Ry     beta= 0.30
     Davidson diagonalization with overlap
     ethr =  4.44E-10,  avg # of iterations =  4.2

     total cpu time spent up to now is     8534.4 secs

     total energy              =   -1988.20743611 Ry
     estimated scf accuracy    <       0.00000017 Ry

     total magnetization       =    -0.00 Bohr mag/cell
     absolute magnetization    =     0.00 Bohr mag/cell

     iteration #  7     ecut=    60.00 Ry     beta= 0.30
     Davidson diagonalization with overlap
     ethr =  8.89E-11,  avg # of iterations =  5.5

     total cpu time spent up to now is     8558.2 secs

     total energy              =   -1988.20743609 Ry
     estimated scf accuracy    <       0.00000009 Ry

     total magnetization       =     0.00 Bohr mag/cell
     absolute magnetization    =     0.00 Bohr mag/cell

     iteration #  8     ecut=    60.00 Ry     beta= 0.30
     Davidson diagonalization with overlap
     ethr =  4.66E-11,  avg # of iterations =  6.4

     Magnetic moment per site:
     atom:    1    charge:    8.1131    magn:   -0.0000    constr:    0.0000
     atom:    2    charge:    8.1131    magn:   -0.0000    constr:    0.0000
     atom:    3    charge:    8.1131    magn:   -0.0000    constr:    0.0000
     atom:    4    charge:    8.1131    magn:   -0.0000    constr:    0.0000
     atom:    5    charge:    8.0868    magn:   -0.0000    constr:    0.0000
     atom:    6    charge:    8.0868    magn:   -0.0000    constr:    0.0000
     atom:    7    charge:    8.0868    magn:   -0.0000    constr:    0.0000
     atom:    8    charge:    8.0868    magn:   -0.0000    constr:    0.0000
     atom:    9    charge:    0.3889    magn:   -0.0000    constr:    0.0000
     atom:   10    charge:    0.3889    magn:   -0.0000    constr:    0.0000
     atom:   11    charge:    0.3889    magn:   -0.0000    constr:    0.0000
     atom:   12    charge:    0.3889    magn:   -0.0000    constr:    0.0000
     atom:   13    charge:    4.0574    magn:    0.0000    constr:    0.0000
     atom:   14    charge:    4.0574    magn:    0.0000    constr:    0.0000
     atom:   15    charge:    4.0574    magn:    0.0000    constr:    0.0000
     atom:   16    charge:    4.0574    magn:    0.0000    constr:    0.0000
     atom:   17    charge:    4.0551    magn:    0.0000    constr:    0.0000
     atom:   18    charge:    4.0551    magn:    0.0000    constr:    0.0000
     atom:   19    charge:    4.0551    magn:    0.0000    constr:    0.0000
     atom:   20    charge:    4.0551    magn:    0.0000    constr:    0.0000
     atom:   21    charge:    4.0427    magn:    0.0000    constr:    0.0000
     atom:   22    charge:    4.0427    magn:    0.0000    constr:    0.0000
     atom:   23    charge:    4.0427    magn:    0.0000    constr:    0.0000
     atom:   24    charge:    4.0427    magn:    0.0000    constr:    0.0000
     atom:   25    charge:    4.0427    magn:    0.0000    constr:    0.0000
     atom:   26    charge:    4.0427    magn:    0.0000    constr:    0.0000
     atom:   27    charge:    4.0427    magn:    0.0000    constr:    0.0000
     atom:   28    charge:    4.0427    magn:    0.0000    constr:    0.0000

     total cpu time spent up to now is     8587.9 secs

     End of self-consistent calculation

 ------ SPIN UP ------------


          k = 0.0000 0.0000 0.0000 ( 15339 PWs)   bands (ev):

   -66.8918 -66.8918 -66.8894 -66.8894 -66.8251 -66.8251 -66.8250 -66.8250
   -33.6757 -33.6753 -33.6472 -33.6465 -33.6430 -33.6427 -33.6357 -33.6357
   -33.6272 -33.6267 -33.6198 -33.6197 -33.6002 -33.5993 -33.5980 -33.5977
   -33.5694 -33.5690 -33.5684 -33.5682 -33.5475 -33.5471 -33.5441 -33.5440
   -12.9680 -12.7464 -12.4653 -12.3268 -11.3319 -11.2840 -11.1867 -11.1492
   -11.1443 -11.0027 -10.9649 -10.9380 -10.8632 -10.8403 -10.7964 -10.7354
    -0.4664  -0.4114   0.0350   0.1156   0.2999   0.4504   0.9997   1.0357
     1.1848   1.5317   1.5650   1.6898   1.9104   2.2649   2.3833   2.5457
     2.7458   3.0186   3.1104   3.1275   3.1343   3.1819   3.2254   3.3436
     3.4745   3.5788   3.7325   3.7545   3.7673   4.0216   4.0245   4.0459
     4.0656   4.3271   4.3671   4.3932   4.4230   4.4823   4.6766   4.7224
     4.7299   4.8860   4.9062   4.9654   5.0611   5.0773   5.1962   5.5548
    10.2317  12.1729  12.5764  13.9050  14.1339  14.1869  14.3191  14.3929
    14.5995  14.8210  14.9050  15.0514  15.2706  15.5923  15.9259  15.9843
    16.1055  16.4713  16.5611

          k = 0.0000 0.0000-0.3935 ( 15392 PWs)   bands (ev):

   -66.8906 -66.8906 -66.8906 -66.8906 -66.8250 -66.8250 -66.8250 -66.8250
   -33.6558 -33.6558 -33.6556 -33.6556 -33.6450 -33.6450 -33.6447 -33.6447
   -33.6235 -33.6235 -33.6233 -33.6233 -33.5989 -33.5989 -33.5986 -33.5986
   -33.5688 -33.5688 -33.5686 -33.5686 -33.5458 -33.5458 -33.5457 -33.5457
   -12.6753 -12.6753 -12.5813 -12.5813 -11.2464 -11.2464 -11.2363 -11.2363
   -11.1416 -11.1416 -10.9249 -10.9249 -10.8445 -10.8445 -10.7506 -10.7506
    -0.1287  -0.1287  -0.1179  -0.1179   0.8344   0.8344   0.8850   0.8850
     1.4706   1.4706   1.8814   1.8814   2.1484   2.1484   2.4669   2.4669
     2.7268   2.7268   2.8752   2.8752   3.2034   3.2034   3.3168   3.3168
     3.3344   3.3344   3.5160   3.5160   3.8057   3.8057   3.8839   3.8839
     4.1825   4.1825   4.3208   4.3208   4.4180   4.4180   4.5671   4.5671
     4.7786   4.7786   4.7918   4.7918   5.0804   5.0804   5.1953   5.1953
    12.0503  12.0503  13.1715  13.1715  13.6591  13.6591  14.7786  14.7786
    15.0243  15.0243  15.8340  15.8340  16.0049  16.0049  16.0986  16.0986
    16.1643  16.1643  16.5531

          k =-0.4958 0.0000 0.0000 ( 15374 PWs)   bands (ev):

   -66.8918 -66.8918 -66.8894 -66.8894 -66.8250 -66.8250 -66.8250 -66.8250
   -33.6755 -33.6755 -33.6470 -33.6470 -33.6429 -33.6429 -33.6357 -33.6357
   -33.6271 -33.6271 -33.6198 -33.6198 -33.5991 -33.5991 -33.5986 -33.5986
   -33.5690 -33.5690 -33.5684 -33.5684 -33.5458 -33.5458 -33.5456 -33.5456
   -12.5288 -12.5288 -12.2184 -12.2184 -11.6870 -11.6870 -11.4474 -11.4474
   -11.0511 -11.0511 -10.8652 -10.8652 -10.8650 -10.8650 -10.8597 -10.8597
    -0.2634  -0.2634  -0.1988  -0.1988   1.2126   1.2126   1.2565   1.2565
     1.7009   1.7009   1.8027   1.8027   1.9522   1.9522   2.2635   2.2635
     2.3953   2.3953   2.5079   2.5079   2.5760   2.5760   3.0013   3.0013
     3.4851   3.4851   3.6583   3.6583   3.8964   3.8964   4.0304   4.0304
     4.5252   4.5252   4.6336   4.6336   4.6873   4.6873   4.8172   4.8172
     5.0035   5.0035   5.0516   5.0516   5.1313   5.1313   5.3380   5.3380
    12.5640  12.5640  13.2885  13.2885  13.6184  13.6184  13.9118  13.9118
    14.2446  14.2446  14.8632  14.8632  15.1986  15.1986  15.8450  15.8450
    16.6549  16.6549  16.7942

          k =-0.4958 0.0000-0.3935 ( 15436 PWs)   bands (ev):

   -66.8906 -66.8906 -66.8906 -66.8906 -66.8250 -66.8250 -66.8250 -66.8250
   -33.6557 -33.6557 -33.6556 -33.6556 -33.6452 -33.6452 -33.6446 -33.6446
   -33.6238 -33.6238 -33.6233 -33.6233 -33.5991 -33.5991 -33.5987 -33.5987
   -33.5688 -33.5688 -33.5686 -33.5686 -33.5458 -33.5458 -33.5457 -33.5457
   -12.3824 -12.3824 -12.3282 -12.3282 -11.5805 -11.5805 -11.5795 -11.5795
   -11.0476 -11.0476 -10.9621 -10.9621 -10.8402 -10.8402 -10.8373 -10.8373
    -0.1178  -0.1178  -0.0224  -0.0224   1.4370   1.4370   1.6477   1.6477
     1.7444   1.7444   1.8549   1.8549   1.9391   1.9391   2.2461   2.2461
     2.2985   2.2985   2.3110   2.3110   2.7803   2.7803   2.8298   2.8298
     3.0059   3.0059   3.3994   3.3994   3.8931   3.8931   3.9489   3.9489
     4.2371   4.2371   4.5718   4.5718   4.6860   4.6860   4.8157   4.8157
     4.9854   4.9854   5.0006   5.0006   5.1726   5.1726   5.2042   5.2042
    13.4009  13.4009  13.4926  13.4926  14.0764  14.0764  14.1283  14.1283
    14.7769  14.7769  15.0219  15.0219  15.3720  15.3720  15.4519  15.4519
    16.2435  16.2435  16.3659

 ------ SPIN DOWN ----------


          k = 0.0000 0.0000 0.0000 ( 15339 PWs)   bands (ev):

   -66.8918 -66.8918 -66.8894 -66.8894 -66.8251 -66.8251 -66.8250 -66.8250
   -33.6757 -33.6753 -33.6472 -33.6465 -33.6430 -33.6427 -33.6357 -33.6357
   -33.6272 -33.6267 -33.6198 -33.6197 -33.6002 -33.5993 -33.5980 -33.5977
   -33.5694 -33.5690 -33.5684 -33.5682 -33.5475 -33.5471 -33.5441 -33.5440
   -12.9680 -12.7464 -12.4653 -12.3268 -11.3319 -11.2840 -11.1867 -11.1492
   -11.1443 -11.0027 -10.9649 -10.9380 -10.8632 -10.8403 -10.7964 -10.7354
    -0.4664  -0.4114   0.0350   0.1156   0.2999   0.4504   0.9997   1.0357
     1.1848   1.5317   1.5650   1.6898   1.9104   2.2649   2.3833   2.5457
     2.7458   3.0186   3.1104   3.1275   3.1343   3.1819   3.2254   3.3436
     3.4745   3.5788   3.7325   3.7545   3.7673   4.0216   4.0245   4.0459
     4.0656   4.3271   4.3671   4.3932   4.4230   4.4823   4.6766   4.7224
     4.7299   4.8860   4.9062   4.9654   5.0611   5.0773   5.1962   5.5548
    10.2317  12.1729  12.5764  13.9050  14.1339  14.1869  14.3191  14.3929
    14.5995  14.8210  14.9050  15.0514  15.2706  15.5923  15.9259  15.9843
    16.1055  16.4713  16.5611

          k = 0.0000 0.0000-0.3935 ( 15392 PWs)   bands (ev):

   -66.8906 -66.8906 -66.8906 -66.8906 -66.8250 -66.8250 -66.8250 -66.8250
   -33.6558 -33.6558 -33.6556 -33.6556 -33.6450 -33.6450 -33.6447 -33.6447
   -33.6235 -33.6235 -33.6233 -33.6233 -33.5989 -33.5989 -33.5986 -33.5986
   -33.5688 -33.5688 -33.5686 -33.5686 -33.5458 -33.5458 -33.5457 -33.5457
   -12.6753 -12.6753 -12.5813 -12.5813 -11.2464 -11.2464 -11.2363 -11.2363
   -11.1416 -11.1416 -10.9249 -10.9249 -10.8445 -10.8445 -10.7506 -10.7506
    -0.1287  -0.1287  -0.1179  -0.1179   0.8344   0.8344   0.8850   0.8850
     1.4706   1.4706   1.8814   1.8814   2.1484   2.1484   2.4669   2.4669
     2.7268   2.7268   2.8752   2.8752   3.2034   3.2034   3.3168   3.3168
     3.3344   3.3344   3.5160   3.5160   3.8057   3.8057   3.8839   3.8839
     4.1825   4.1825   4.3208   4.3208   4.4180   4.4180   4.5671   4.5671
     4.7786   4.7786   4.7918   4.7918   5.0804   5.0804   5.1954   5.1954
    12.0503  12.0503  13.1715  13.1715  13.6591  13.6591  14.7786  14.7786
    15.0243  15.0243  15.8340  15.8340  16.0049  16.0049  16.0986  16.0986
    16.1643  16.1643  16.5531

          k =-0.4958 0.0000 0.0000 ( 15374 PWs)   bands (ev):

   -66.8918 -66.8918 -66.8894 -66.8894 -66.8250 -66.8250 -66.8250 -66.8250
   -33.6755 -33.6755 -33.6470 -33.6470 -33.6429 -33.6429 -33.6357 -33.6357
   -33.6271 -33.6271 -33.6198 -33.6198 -33.5991 -33.5991 -33.5986 -33.5986
   -33.5690 -33.5690 -33.5684 -33.5684 -33.5458 -33.5458 -33.5456 -33.5456
   -12.5288 -12.5288 -12.2184 -12.2184 -11.6870 -11.6870 -11.4474 -11.4474
   -11.0511 -11.0511 -10.8652 -10.8652 -10.8650 -10.8650 -10.8597 -10.8597
    -0.2634  -0.2634  -0.1988  -0.1988   1.2126   1.2126   1.2565   1.2565
     1.7009   1.7009   1.8027   1.8027   1.9522   1.9522   2.2635   2.2635
     2.3953   2.3953   2.5079   2.5079   2.5760   2.5760   3.0013   3.0013
     3.4851   3.4851   3.6583   3.6583   3.8964   3.8964   4.0304   4.0304
     4.5252   4.5252   4.6336   4.6336   4.6873   4.6873   4.8172   4.8172
     5.0035   5.0035   5.0516   5.0516   5.1313   5.1313   5.3380   5.3380
    12.5640  12.5640  13.2885  13.2885  13.6184  13.6184  13.9118  13.9118
    14.2446  14.2446  14.8632  14.8632  15.1986  15.1986  15.8450  15.8450
    16.6549  16.6550  16.7942

          k =-0.4958 0.0000-0.3935 ( 15436 PWs)   bands (ev):

   -66.8906 -66.8906 -66.8906 -66.8906 -66.8250 -66.8250 -66.8250 -66.8250
   -33.6557 -33.6557 -33.6556 -33.6556 -33.6452 -33.6452 -33.6446 -33.6446
   -33.6238 -33.6238 -33.6233 -33.6233 -33.5991 -33.5991 -33.5987 -33.5987
   -33.5688 -33.5688 -33.5686 -33.5686 -33.5458 -33.5458 -33.5457 -33.5457
   -12.3824 -12.3824 -12.3282 -12.3282 -11.5805 -11.5805 -11.5795 -11.5795
   -11.0475 -11.0475 -10.9621 -10.9621 -10.8402 -10.8402 -10.8373 -10.8373
    -0.1178  -0.1178  -0.0224  -0.0224   1.4370   1.4370   1.6477   1.6477
     1.7444   1.7444   1.8549   1.8549   1.9391   1.9391   2.2461   2.2461
     2.2985   2.2985   2.3110   2.3110   2.7803   2.7803   2.8298   2.8298
     3.0059   3.0059   3.3994   3.3994   3.8932   3.8932   3.9489   3.9489
     4.2371   4.2371   4.5718   4.5718   4.6861   4.6861   4.8157   4.8157
     4.9854   4.9854   5.0006   5.0006   5.1726   5.1726   5.2042   5.2042
    13.4009  13.4009  13.4926  13.4926  14.0764  14.0764  14.1283  14.1283
    14.7769  14.7769  15.0219  15.0219  15.3720  15.3720  15.4519  15.4519
    16.2435  16.2435  16.3659

     the Fermi energy is     6.5375 ev

!    total energy              =   -1988.20743612 Ry

     total all-electron energy =     -7937.303289 Ry
     estimated scf accuracy    <          1.6E-09 Ry
     smearing contrib. (-TS)   =      -0.00000000 Ry
     internal energy E=F+TS    =   -1988.20743612 Ry

     The total energy is F=E-TS. E is the sum of the following terms:
     one-electron contribution =    -930.03254924 Ry
     hartree contribution      =     540.50476007 Ry
     xc contribution           =    -288.09401964 Ry
     ewald contribution        =    -895.37878898 Ry
     one-center paw contrib.   =    -415.20683832 Ry

     total magnetization       =     0.00 Bohr mag/cell
     absolute magnetization    =     0.00 Bohr mag/cell

     convergence has been achieved in   8 iterations

     Forces acting on atoms (cartesian axes, Ry/au):

     atom    1 type  1   force =     0.00000000    0.00000000    0.00000000
     atom    2 type  1   force =     0.00000000   -0.00000000    0.00000000
     atom    3 type  1   force =     0.00000000    0.00000000    0.00000000
     atom    4 type  1   force =    -0.00000000    0.00000000    0.00000000
     atom    5 type  1   force =     0.00013358   -0.00001964    0.00000000
     atom    6 type  1   force =    -0.00013358    0.00001964   -0.00000000
     atom    7 type  1   force =     0.00013358    0.00001964   -0.00000000
     atom    8 type  1   force =    -0.00013358   -0.00001964    0.00000000
     atom    9 type  2   force =    -0.00031801    0.00014099   -0.00000000
     atom   10 type  2   force =     0.00031801   -0.00014099    0.00000000
     atom   11 type  2   force =    -0.00031801   -0.00014099    0.00000000
     atom   12 type  2   force =     0.00031801    0.00014099    0.00000000
     atom   13 type  3   force =    -0.00019451   -0.00049228    0.00000000
     atom   14 type  3   force =     0.00019451    0.00049228    0.00000000
     atom   15 type  3   force =    -0.00019451    0.00049228    0.00000000
     atom   16 type  3   force =     0.00019451   -0.00049228    0.00000000
     atom   17 type  3   force =    -0.00000844    0.00004178    0.00000000
     atom   18 type  3   force =     0.00000844   -0.00004178    0.00000000
     atom   19 type  3   force =    -0.00000844   -0.00004178    0.00000000
     atom   20 type  3   force =     0.00000844    0.00004178   -0.00000000
     atom   21 type  3   force =    -0.00036709   -0.00022561    0.00000287
     atom   22 type  3   force =     0.00036709    0.00022561   -0.00000287
     atom   23 type  3   force =    -0.00036709    0.00022561   -0.00000287
     atom   24 type  3   force =     0.00036709   -0.00022561    0.00000287
     atom   25 type  3   force =     0.00036709    0.00022561    0.00000287
     atom   26 type  3   force =    -0.00036709   -0.00022561   -0.00000287
     atom   27 type  3   force =     0.00036709   -0.00022561   -0.00000287
     atom   28 type  3   force =    -0.00036709    0.00022561    0.00000287

     Total force =     0.001780     Total SCF correction =     0.000122


     Computing stress (Cartesian axis) and pressure

          total   stress  (Ry/bohr**3)                   (kbar)     P=       -0.17
   0.00000195   0.00000000   0.00000000            0.29        0.00        0.00
   0.00000000  -0.00000116   0.00000000            0.00       -0.17        0.00
   0.00000000   0.00000000  -0.00000416            0.00        0.00       -0.61

     Energy error            =      1.4E-05
     Gradient error          =      4.9E-04
     Cell gradient error     =      4.2E-06


     number of scf cycles    =  14
     number of bfgs steps    =  13

     enthalpy old            =   -1988.2074218995 Ry
     enthalpy new            =   -1988.2074361188 Ry

     CASE: enthalpy_new < enthalpy_old

     new trust radius        =       0.0021280677 bohr
     new conv_thr            =       0.0000000014 Ry

     new unit-cell volume =   2014.50710 a.u.^3 (   298.51915 Ang^3 )
     density =      3.13042 g/cm^3

CELL_PARAMETERS (angstrom)
   4.794097825   0.000000000   0.000000000
   0.000000000  10.309701776   0.000000000
   0.000000000   0.000000000   6.039753392

ATOMIC_POSITIONS (angstrom)
Mg           -0.0000000000       -0.0000000000        0.0000000000
Mg            2.3970489126        5.1548508882        0.0000000000
Mg            0.0000000000        0.0000000000        3.0198766962
Mg            2.3970489126        5.1548508882        3.0198766962
Mg            0.0415253126        2.8591884013        4.5298150442
Mg            4.7525725127        7.4505133751        1.5099383481
Mg            2.4385742252        2.2956624869        1.5099383481
Mg            2.3555236000        8.0140392895        4.5298150442
Si            0.3561391161        4.1885940926        1.5099383481
Si            4.4379587092        6.1211076838        4.5298150442
Si            2.7531880287        0.9662567956        4.5298150442
Si            2.0409097966        9.3434449808        1.5099383481
O             1.1213268978        0.9479535823        4.5298150442
O             3.6727709275        9.3617481941        1.5099383481
O             3.5183758104        4.2068973059        1.5099383481
O             1.2757220149        6.1028044705        4.5298150442
O             1.3318146180        0.5499904797        1.5099383481
O             3.4622832073        9.7597112967        4.5298150442
O             3.7288635306        4.6048604085        4.5298150442
O             1.0652342946        5.7048413679        1.5099383481
O             1.0719354421        3.4758417478        2.8221595463
O             3.7221623832        6.8338600287        3.2175938461
O             3.4689843547        1.6790091404        3.2175938461
O             1.3251134705        8.6306926360        2.8221595463
O             3.7221623832        6.8338600287        5.8420362424
O             1.0719354421        3.4758417478        0.1977171499
O             1.3251134705        8.6306926360        0.1977171499
O             3.4689843547        1.6790091404        5.8420362424



     Writing output data file ./out/oliv.save/
     NEW-OLD atomic charge density approx. for the potential

     Check: negative core charge=   -0.000009
     extrapolated charge  191.96323, renormalised to  192.00000
     Generating pointlists ...

     total cpu time spent up to now is     8620.1 secs

     Self-consistent Calculation

     iteration #  1     ecut=    60.00 Ry     beta= 0.30
     Davidson diagonalization with overlap
     ethr =  1.00E-06,  avg # of iterations =  2.2

     Threshold (ethr) on eigenvalues was too large:
     Diagonalizing with lowered threshold

     Davidson diagonalization with overlap
     ethr =  1.24E-08,  avg # of iterations =  5.5

     total cpu time spent up to now is     8691.7 secs

     total energy              =   -1988.20741846 Ry
     estimated scf accuracy    <       0.00002090 Ry

     total magnetization       =     0.00 Bohr mag/cell
     absolute magnetization    =     0.00 Bohr mag/cell

     iteration #  2     ecut=    60.00 Ry     beta= 0.30
     Davidson diagonalization with overlap
     ethr =  1.09E-08,  avg # of iterations =  6.6

     total cpu time spent up to now is     8730.7 secs

     total energy              =   -1988.20744227 Ry
     estimated scf accuracy    <       0.00001040 Ry

     total magnetization       =    -0.00 Bohr mag/cell
     absolute magnetization    =     0.00 Bohr mag/cell

     iteration #  3     ecut=    60.00 Ry     beta= 0.30
     Davidson diagonalization with overlap
     ethr =  5.42E-09,  avg # of iterations =  2.0

     total cpu time spent up to now is     8753.1 secs

     total energy              =   -1988.20743950 Ry
     estimated scf accuracy    <       0.00000530 Ry

     total magnetization       =    -0.00 Bohr mag/cell
     absolute magnetization    =     0.00 Bohr mag/cell

     iteration #  4     ecut=    60.00 Ry     beta= 0.30
     Davidson diagonalization with overlap
     ethr =  2.76E-09,  avg # of iterations =  4.0

     total cpu time spent up to now is     8787.5 secs

     total energy              =   -1988.20744172 Ry
     estimated scf accuracy    <       0.00000136 Ry

     total magnetization       =    -0.00 Bohr mag/cell
     absolute magnetization    =     0.00 Bohr mag/cell

     iteration #  5     ecut=    60.00 Ry     beta= 0.30
     Davidson diagonalization with overlap
     ethr =  7.09E-10,  avg # of iterations =  2.5

     total cpu time spent up to now is     8813.6 secs

     total energy              =   -1988.20744174 Ry
     estimated scf accuracy    <       0.00000030 Ry

     total magnetization       =     0.00 Bohr mag/cell
     absolute magnetization    =     0.00 Bohr mag/cell

     iteration #  6     ecut=    60.00 Ry     beta= 0.30
     Davidson diagonalization with overlap
     ethr =  1.57E-10,  avg # of iterations =  6.8

     total cpu time spent up to now is     8858.5 secs

     total energy              =   -1988.20744178 Ry
     estimated scf accuracy    <       0.00000172 Ry

     total magnetization       =     0.00 Bohr mag/cell
     absolute magnetization    =     0.00 Bohr mag/cell

     iteration #  7     ecut=    60.00 Ry     beta= 0.30
     Davidson diagonalization with overlap
     ethr =  1.57E-10,  avg # of iterations =  4.0

     total cpu time spent up to now is     8896.2 secs

     total energy              =   -1988.20744203 Ry
     estimated scf accuracy    <       0.00000003 Ry

     total magnetization       =    -0.00 Bohr mag/cell
     absolute magnetization    =     0.00 Bohr mag/cell

     iteration #  8     ecut=    60.00 Ry     beta= 0.30
     Davidson diagonalization with overlap
     ethr =  1.67E-11,  avg # of iterations =  4.2

     Magnetic moment per site:
     atom:    1    charge:    8.1131    magn:    0.0000    constr:    0.0000
     atom:    2    charge:    8.1131    magn:    0.0000    constr:    0.0000
     atom:    3    charge:    8.1131    magn:    0.0000    constr:    0.0000
     atom:    4    charge:    8.1131    magn:    0.0000    constr:    0.0000
     atom:    5    charge:    8.0869    magn:    0.0000    constr:    0.0000
     atom:    6    charge:    8.0869    magn:    0.0000    constr:    0.0000
     atom:    7    charge:    8.0869    magn:    0.0000    constr:    0.0000
     atom:    8    charge:    8.0869    magn:    0.0000    constr:    0.0000
     atom:    9    charge:    0.3889    magn:    0.0000    constr:    0.0000
     atom:   10    charge:    0.3889    magn:    0.0000    constr:    0.0000
     atom:   11    charge:    0.3889    magn:    0.0000    constr:    0.0000
     atom:   12    charge:    0.3889    magn:    0.0000    constr:    0.0000
     atom:   13    charge:    4.0574    magn:   -0.0000    constr:    0.0000
     atom:   14    charge:    4.0574    magn:   -0.0000    constr:    0.0000
     atom:   15    charge:    4.0574    magn:   -0.0000    constr:    0.0000
     atom:   16    charge:    4.0574    magn:   -0.0000    constr:    0.0000
     atom:   17    charge:    4.0552    magn:   -0.0000    constr:    0.0000
     atom:   18    charge:    4.0552    magn:   -0.0000    constr:    0.0000
     atom:   19    charge:    4.0552    magn:   -0.0000    constr:    0.0000
     atom:   20    charge:    4.0552    magn:   -0.0000    constr:    0.0000
     atom:   21    charge:    4.0427    magn:   -0.0000    constr:    0.0000
     atom:   22    charge:    4.0427    magn:   -0.0000    constr:    0.0000
     atom:   23    charge:    4.0427    magn:   -0.0000    constr:    0.0000
     atom:   24    charge:    4.0427    magn:   -0.0000    constr:    0.0000
     atom:   25    charge:    4.0427    magn:   -0.0000    constr:    0.0000
     atom:   26    charge:    4.0427    magn:   -0.0000    constr:    0.0000
     atom:   27    charge:    4.0427    magn:   -0.0000    constr:    0.0000
     atom:   28    charge:    4.0427    magn:   -0.0000    constr:    0.0000

     total cpu time spent up to now is     8931.0 secs

     End of self-consistent calculation

 ------ SPIN UP ------------


          k = 0.0000 0.0000 0.0000 ( 15339 PWs)   bands (ev):

   -66.8902 -66.8902 -66.8878 -66.8878 -66.8206 -66.8206 -66.8205 -66.8205
   -33.6741 -33.6738 -33.6457 -33.6450 -33.6415 -33.6413 -33.6340 -33.6340
   -33.6255 -33.6251 -33.6181 -33.6181 -33.5956 -33.5949 -33.5934 -33.5931
   -33.5650 -33.5646 -33.5640 -33.5639 -33.5430 -33.5426 -33.5396 -33.5394
   -12.9666 -12.7450 -12.4634 -12.3248 -11.3304 -11.2830 -11.1850 -11.1481
   -11.1426 -10.9997 -10.9640 -10.9352 -10.8624 -10.8392 -10.7932 -10.7323
    -0.4647  -0.4099   0.0366   0.1175   0.3017   0.4514   1.0015   1.0374
     1.1850   1.5328   1.5652   1.6921   1.9111   2.2672   2.3840   2.5481
     2.7466   3.0199   3.1111   3.1296   3.1377   3.1838   3.2279   3.3449
     3.4756   3.5797   3.7348   3.7563   3.7690   4.0231   4.0260   4.0503
     4.0685   4.3278   4.3688   4.3957   4.4249   4.4844   4.6792   4.7248
     4.7336   4.8896   4.9078   4.9671   5.0625   5.0789   5.1988   5.5570
    10.2349  12.1754  12.5808  13.9092  14.1365  14.1859  14.3210  14.3928
    14.6049  14.8257  14.9097  15.0558  15.2729  15.5962  15.9292  15.9890
    16.1091  16.4746  16.5642

          k = 0.0000 0.0000-0.3936 ( 15392 PWs)   bands (ev):

   -66.8890 -66.8890 -66.8890 -66.8890 -66.8205 -66.8205 -66.8205 -66.8205
   -33.6542 -33.6542 -33.6540 -33.6540 -33.6435 -33.6435 -33.6433 -33.6433
   -33.6218 -33.6218 -33.6217 -33.6217 -33.5944 -33.5944 -33.5941 -33.5941
   -33.5645 -33.5645 -33.5643 -33.5643 -33.5413 -33.5413 -33.5412 -33.5412
   -12.6736 -12.6736 -12.5796 -12.5796 -11.2450 -11.2450 -11.2347 -11.2347
   -11.1398 -11.1398 -10.9231 -10.9231 -10.8424 -10.8424 -10.7482 -10.7482
    -0.1272  -0.1272  -0.1162  -0.1162   0.8357   0.8357   0.8868   0.8868
     1.4727   1.4727   1.8832   1.8832   2.1503   2.1503   2.4686   2.4686
     2.7275   2.7275   2.8767   2.8767   3.2056   3.2056   3.3196   3.3196
     3.3361   3.3361   3.5174   3.5174   3.8069   3.8069   3.8850   3.8850
     4.1842   4.1842   4.3230   4.3230   4.4201   4.4201   4.5690   4.5690
     4.7806   4.7806   4.7945   4.7945   5.0826   5.0826   5.1970   5.1970
    12.0537  12.0537  13.1750  13.1750  13.6623  13.6623  14.7806  14.7806
    15.0251  15.0251  15.8370  15.8370  16.0096  16.0096  16.1018  16.1018
    16.1683  16.1683  16.5548

          k =-0.4958 0.0000 0.0000 ( 15374 PWs)   bands (ev):

   -66.8902 -66.8902 -66.8878 -66.8878 -66.8205 -66.8205 -66.8205 -66.8205
   -33.6739 -33.6739 -33.6455 -33.6455 -33.6414 -33.6414 -33.6341 -33.6341
   -33.6255 -33.6255 -33.6182 -33.6182 -33.5945 -33.5945 -33.5941 -33.5941
   -33.5647 -33.5647 -33.5641 -33.5641 -33.5412 -33.5412 -33.5411 -33.5411
   -12.5273 -12.5273 -12.2163 -12.2163 -11.6858 -11.6858 -11.4457 -11.4457
   -11.0504 -11.0504 -10.8641 -10.8641 -10.8622 -10.8622 -10.8567 -10.8567
    -0.2622  -0.2622  -0.1969  -0.1969   1.2138   1.2138   1.2579   1.2579
     1.7018   1.7018   1.8042   1.8042   1.9536   1.9536   2.2641   2.2641
     2.3971   2.3971   2.5096   2.5096   2.5784   2.5784   3.0034   3.0034
     3.4866   3.4866   3.6611   3.6611   3.8994   3.8994   4.0320   4.0320
     4.5269   4.5269   4.6374   4.6374   4.6894   4.6894   4.8189   4.8189
     5.0051   5.0051   5.0533   5.0533   5.1334   5.1334   5.3406   5.3406
    12.5679  12.5679  13.2908  13.2908  13.6217  13.6217  13.9126  13.9126
    14.2485  14.2485  14.8662  14.8662  15.2032  15.2032  15.8472  15.8472
    16.6586  16.6586  16.7964

          k =-0.4958 0.0000-0.3936 ( 15436 PWs)   bands (ev):

   -66.8890 -66.8890 -66.8890 -66.8890 -66.8206 -66.8206 -66.8205 -66.8205
   -33.6541 -33.6541 -33.6541 -33.6541 -33.6437 -33.6437 -33.6432 -33.6432
   -33.6221 -33.6221 -33.6216 -33.6216 -33.5945 -33.5945 -33.5941 -33.5941
   -33.5645 -33.5645 -33.5643 -33.5643 -33.5412 -33.5412 -33.5411 -33.5411
   -12.3806 -12.3806 -12.3264 -12.3264 -11.5788 -11.5788 -11.5780 -11.5780
   -11.0466 -11.0466 -10.9601 -10.9601 -10.8384 -10.8384 -10.8347 -10.8347
    -0.1165  -0.1165  -0.0206  -0.0206   1.4388   1.4388   1.6490   1.6490
     1.7457   1.7457   1.8563   1.8563   1.9413   1.9413   2.2476   2.2476
     2.3004   2.3004   2.3132   2.3132   2.7829   2.7829   2.8317   2.8317
     3.0070   3.0070   3.4015   3.4015   3.8945   3.8945   3.9509   3.9509
     4.2388   4.2388   4.5739   4.5739   4.6878   4.6878   4.8175   4.8175
     4.9875   4.9875   5.0026   5.0026   5.1749   5.1749   5.2059   5.2059
    13.4048  13.4048  13.4955  13.4955  14.0778  14.0778  14.1311  14.1311
    14.7797  14.7797  15.0269  15.0269  15.3740  15.3740  15.4557  15.4557
    16.2463  16.2463  16.3694

 ------ SPIN DOWN ----------


          k = 0.0000 0.0000 0.0000 ( 15339 PWs)   bands (ev):

   -66.8902 -66.8902 -66.8878 -66.8878 -66.8206 -66.8206 -66.8205 -66.8205
   -33.6741 -33.6738 -33.6457 -33.6450 -33.6415 -33.6413 -33.6340 -33.6340
   -33.6255 -33.6251 -33.6181 -33.6181 -33.5956 -33.5949 -33.5934 -33.5931
   -33.5650 -33.5646 -33.5640 -33.5639 -33.5430 -33.5426 -33.5396 -33.5394
   -12.9666 -12.7450 -12.4634 -12.3248 -11.3304 -11.2830 -11.1850 -11.1481
   -11.1426 -10.9997 -10.9640 -10.9352 -10.8624 -10.8392 -10.7932 -10.7323
    -0.4647  -0.4099   0.0366   0.1175   0.3017   0.4514   1.0015   1.0374
     1.1850   1.5328   1.5652   1.6921   1.9111   2.2672   2.3840   2.5481
     2.7466   3.0199   3.1111   3.1296   3.1377   3.1838   3.2279   3.3449
     3.4756   3.5797   3.7348   3.7563   3.7690   4.0231   4.0260   4.0503
     4.0685   4.3278   4.3688   4.3957   4.4249   4.4844   4.6792   4.7248
     4.7336   4.8896   4.9078   4.9671   5.0625   5.0789   5.1988   5.5570
    10.2349  12.1754  12.5808  13.9092  14.1365  14.1859  14.3210  14.3928
    14.6049  14.8257  14.9097  15.0558  15.2729  15.5962  15.9292  15.9890
    16.1091  16.4746  16.5642

          k = 0.0000 0.0000-0.3936 ( 15392 PWs)   bands (ev):

   -66.8890 -66.8890 -66.8890 -66.8890 -66.8205 -66.8205 -66.8205 -66.8205
   -33.6542 -33.6542 -33.6540 -33.6540 -33.6435 -33.6435 -33.6433 -33.6433
   -33.6218 -33.6218 -33.6217 -33.6217 -33.5944 -33.5944 -33.5941 -33.5941
   -33.5645 -33.5645 -33.5643 -33.5643 -33.5413 -33.5413 -33.5412 -33.5412
   -12.6736 -12.6736 -12.5796 -12.5796 -11.2450 -11.2450 -11.2347 -11.2347
   -11.1398 -11.1398 -10.9231 -10.9231 -10.8424 -10.8424 -10.7482 -10.7482
    -0.1272  -0.1272  -0.1162  -0.1162   0.8357   0.8357   0.8868   0.8868
     1.4727   1.4727   1.8832   1.8832   2.1503   2.1503   2.4686   2.4686
     2.7275   2.7275   2.8767   2.8767   3.2056   3.2056   3.3196   3.3196
     3.3361   3.3361   3.5174   3.5174   3.8069   3.8069   3.8850   3.8850
     4.1842   4.1842   4.3230   4.3230   4.4201   4.4201   4.5690   4.5690
     4.7806   4.7806   4.7945   4.7945   5.0826   5.0826   5.1970   5.1970
    12.0537  12.0537  13.1750  13.1750  13.6623  13.6623  14.7806  14.7806
    15.0251  15.0251  15.8370  15.8370  16.0096  16.0096  16.1018  16.1018
    16.1683  16.1683  16.5548

          k =-0.4958 0.0000 0.0000 ( 15374 PWs)   bands (ev):

   -66.8902 -66.8902 -66.8878 -66.8878 -66.8205 -66.8205 -66.8205 -66.8205
   -33.6739 -33.6739 -33.6455 -33.6455 -33.6414 -33.6414 -33.6341 -33.6341
   -33.6255 -33.6255 -33.6182 -33.6182 -33.5945 -33.5945 -33.5941 -33.5941
   -33.5647 -33.5647 -33.5641 -33.5641 -33.5412 -33.5412 -33.5411 -33.5411
   -12.5273 -12.5273 -12.2163 -12.2163 -11.6858 -11.6858 -11.4457 -11.4457
   -11.0504 -11.0504 -10.8641 -10.8641 -10.8622 -10.8622 -10.8567 -10.8567
    -0.2622  -0.2622  -0.1969  -0.1969   1.2138   1.2138   1.2579   1.2579
     1.7018   1.7018   1.8042   1.8042   1.9536   1.9536   2.2641   2.2641
     2.3971   2.3971   2.5096   2.5096   2.5784   2.5784   3.0034   3.0034
     3.4866   3.4866   3.6611   3.6611   3.8994   3.8994   4.0320   4.0320
     4.5269   4.5269   4.6374   4.6374   4.6894   4.6894   4.8189   4.8189
     5.0051   5.0051   5.0533   5.0533   5.1334   5.1334   5.3406   5.3406
    12.5679  12.5679  13.2908  13.2908  13.6217  13.6217  13.9126  13.9126
    14.2485  14.2485  14.8662  14.8662  15.2032  15.2032  15.8472  15.8472
    16.6586  16.6586  16.7964

          k =-0.4958 0.0000-0.3936 ( 15436 PWs)   bands (ev):

   -66.8890 -66.8890 -66.8890 -66.8890 -66.8206 -66.8206 -66.8205 -66.8205
   -33.6541 -33.6541 -33.6541 -33.6541 -33.6437 -33.6437 -33.6432 -33.6432
   -33.6221 -33.6221 -33.6216 -33.6216 -33.5945 -33.5945 -33.5941 -33.5941
   -33.5645 -33.5645 -33.5643 -33.5643 -33.5412 -33.5412 -33.5411 -33.5411
   -12.3806 -12.3806 -12.3264 -12.3264 -11.5788 -11.5788 -11.5780 -11.5780
   -11.0466 -11.0466 -10.9601 -10.9601 -10.8384 -10.8384 -10.8347 -10.8347
    -0.1165  -0.1165  -0.0206  -0.0206   1.4388   1.4388   1.6490   1.6490
     1.7457   1.7457   1.8563   1.8563   1.9413   1.9413   2.2476   2.2476
     2.3004   2.3004   2.3132   2.3132   2.7829   2.7829   2.8317   2.8317
     3.0070   3.0070   3.4015   3.4015   3.8945   3.8945   3.9509   3.9509
     4.2387   4.2387   4.5739   4.5739   4.6878   4.6878   4.8175   4.8175
     4.9875   4.9875   5.0026   5.0026   5.1749   5.1749   5.2059   5.2059
    13.4048  13.4048  13.4955  13.4955  14.0778  14.0778  14.1311  14.1311
    14.7797  14.7797  15.0269  15.0269  15.3740  15.3740  15.4557  15.4557
    16.2463  16.2463  16.3694

     the Fermi energy is     6.5397 ev

!    total energy              =   -1988.20744204 Ry

     total all-electron energy =     -7937.303295 Ry
     estimated scf accuracy    <          6.6E-10 Ry
     smearing contrib. (-TS)   =      -0.00000000 Ry
     internal energy E=F+TS    =   -1988.20744204 Ry

     The total energy is F=E-TS. E is the sum of the following terms:
     one-electron contribution =    -929.91394679 Ry
     hartree contribution      =     540.46223482 Ry
     xc contribution           =    -288.09607483 Ry
     ewald contribution        =    -895.45278272 Ry
     one-center paw contrib.   =    -415.20687253 Ry

     total magnetization       =     0.00 Bohr mag/cell
     absolute magnetization    =     0.00 Bohr mag/cell

     convergence has been achieved in   8 iterations

     Forces acting on atoms (cartesian axes, Ry/au):

     atom    1 type  1   force =     0.00000000    0.00000000    0.00000000
     atom    2 type  1   force =    -0.00000000    0.00000000   -0.00000000
     atom    3 type  1   force =     0.00000000    0.00000000    0.00000000
     atom    4 type  1   force =     0.00000000    0.00000000    0.00000000
     atom    5 type  1   force =     0.00007568   -0.00020195    0.00000000
     atom    6 type  1   force =    -0.00007568    0.00020195    0.00000000
     atom    7 type  1   force =     0.00007568    0.00020195    0.00000000
     atom    8 type  1   force =    -0.00007568   -0.00020195    0.00000000
     atom    9 type  2   force =    -0.00034404   -0.00005485    0.00000000
     atom   10 type  2   force =     0.00034404    0.00005485    0.00000000
     atom   11 type  2   force =    -0.00034404    0.00005485    0.00000000
     atom   12 type  2   force =     0.00034404   -0.00005485   -0.00000000
     atom   13 type  3   force =    -0.00009796   -0.00045126    0.00000000
     atom   14 type  3   force =     0.00009796    0.00045126    0.00000000
     atom   15 type  3   force =    -0.00009796    0.00045126    0.00000000
     atom   16 type  3   force =     0.00009796   -0.00045126    0.00000000
     atom   17 type  3   force =    -0.00008597   -0.00011763   -0.00000000
     atom   18 type  3   force =     0.00008597    0.00011763    0.00000000
     atom   19 type  3   force =    -0.00008597    0.00011763    0.00000000
     atom   20 type  3   force =     0.00008597   -0.00011763    0.00000000
     atom   21 type  3   force =    -0.00027393   -0.00002792    0.00006880
     atom   22 type  3   force =     0.00027393    0.00002792   -0.00006880
     atom   23 type  3   force =    -0.00027393    0.00002792   -0.00006880
     atom   24 type  3   force =     0.00027393   -0.00002792    0.00006880
     atom   25 type  3   force =     0.00027393    0.00002792    0.00006880
     atom   26 type  3   force =    -0.00027393   -0.00002792   -0.00006880
     atom   27 type  3   force =     0.00027393   -0.00002792   -0.00006880
     atom   28 type  3   force =    -0.00027393    0.00002792    0.00006880

     Total force =     0.001501     Total SCF correction =     0.000053


     Computing stress (Cartesian axis) and pressure

          total   stress  (Ry/bohr**3)                   (kbar)     P=        0.06
   0.00000314   0.00000000   0.00000000            0.46        0.00        0.00
   0.00000000  -0.00000179   0.00000000            0.00       -0.26        0.00
   0.00000000   0.00000000  -0.00000010            0.00        0.00       -0.02

     Energy error            =      5.9E-06
     Gradient error          =      4.5E-04
     Cell gradient error     =      3.1E-06


     number of scf cycles    =  15
     number of bfgs steps    =  14

     enthalpy old            =   -1988.2074361188 Ry
     enthalpy new            =   -1988.2074420404 Ry

     CASE: enthalpy_new < enthalpy_old

     new trust radius        =       0.0015133548 bohr
     new conv_thr            =       0.0000000010 Ry

     new unit-cell volume =   2014.30546 a.u.^3 (   298.48927 Ang^3 )
     density =      3.13074 g/cm^3

CELL_PARAMETERS (angstrom)
   4.794516471   0.000000000   0.000000000
   0.000000000  10.309507783   0.000000000
   0.000000000   0.000000000   6.038735163

ATOMIC_POSITIONS (angstrom)
Mg           -0.0000000000        0.0000000000        0.0000000000
Mg            2.3972582353        5.1547538916        0.0000000000
Mg            0.0000000000        0.0000000000        3.0193675815
Mg            2.3972582353        5.1547538916        3.0193675815
Mg            0.0414878226        2.8591664481        4.5290513723
Mg            4.7530286480        7.4503413351        1.5096837908
Mg            2.4387460579        2.2955874435        1.5096837908
Mg            2.3557704127        8.0139203397        4.5290513723
Si            0.3557511818        4.1885983796        1.5096837908
Si            4.4387652888        6.1209094036        4.5290513723
Si            2.7530094171        0.9661555120        4.5290513723
Si            2.0415070535        9.3433522712        1.5096837908
O             1.1210944555        0.9472920174        4.5290513723
O             3.6734220151        9.3622157658        1.5096837908
O             3.5183526909        4.2074618742        1.5096837908
O             1.2761637798        6.1020459090        4.5290513723
O             1.3320278511        0.5499437360        1.5096837908
O             3.4624886195        9.7595640472        4.5290513723
O             3.7292860864        4.6048101556        4.5290513723
O             1.0652303842        5.7046976275        1.5096837908
O             1.0715187985        3.4754451796        2.8217093920
O             3.7229976721        6.8340626036        3.2170257711
O             3.4687770338        1.6793087120        3.2170257711
O             1.3257394368        8.6301990711        2.8217093920
O             3.7229976721        6.8340626036        5.8410769735
O             1.0715187985        3.4754451796        0.1976581896
O             1.3257394368        8.6301990711        0.1976581896
O             3.4687770338        1.6793087120        5.8410769735



     Writing output data file ./out/oliv.save/
     NEW-OLD atomic charge density approx. for the potential

     Check: negative core charge=   -0.000009
     extrapolated charge  191.98078, renormalised to  192.00000
     Generating pointlists ...

     total cpu time spent up to now is     8963.1 secs

     Self-consistent Calculation

     iteration #  1     ecut=    60.00 Ry     beta= 0.30
     Davidson diagonalization with overlap
     ethr =  1.00E-06,  avg # of iterations =  2.0

     Threshold (ethr) on eigenvalues was too large:
     Diagonalizing with lowered threshold

     Davidson diagonalization with overlap
     ethr =  4.49E-09,  avg # of iterations =  6.2

     total cpu time spent up to now is     9035.1 secs

     total energy              =   -1988.20744035 Ry
     estimated scf accuracy    <       0.00000723 Ry

     total magnetization       =    -0.00 Bohr mag/cell
     absolute magnetization    =     0.00 Bohr mag/cell

     iteration #  2     ecut=    60.00 Ry     beta= 0.30
     Davidson diagonalization with overlap
     ethr =  3.77E-09,  avg # of iterations =  5.0

     total cpu time spent up to now is     9068.3 secs

     total energy              =   -1988.20744653 Ry
     estimated scf accuracy    <       0.00000264 Ry

     total magnetization       =     0.00 Bohr mag/cell
     absolute magnetization    =     0.00 Bohr mag/cell

     iteration #  3     ecut=    60.00 Ry     beta= 0.30
     Davidson diagonalization with overlap
     ethr =  1.37E-09,  avg # of iterations =  5.0

     total cpu time spent up to now is     9094.4 secs

     total energy              =   -1988.20744606 Ry
     estimated scf accuracy    <       0.00000165 Ry

     total magnetization       =    -0.00 Bohr mag/cell
     absolute magnetization    =     0.00 Bohr mag/cell

     iteration #  4     ecut=    60.00 Ry     beta= 0.30
     Davidson diagonalization with overlap
     ethr =  8.57E-10,  avg # of iterations =  4.0

     total cpu time spent up to now is     9126.8 secs

     total energy              =   -1988.20744681 Ry
     estimated scf accuracy    <       0.00000063 Ry

     total magnetization       =     0.00 Bohr mag/cell
     absolute magnetization    =     0.00 Bohr mag/cell

     iteration #  5     ecut=    60.00 Ry     beta= 0.30
     Davidson diagonalization with overlap
     ethr =  3.26E-10,  avg # of iterations =  2.0

     total cpu time spent up to now is     9147.4 secs

     total energy              =   -1988.20744656 Ry
     estimated scf accuracy    <       0.00000040 Ry

     total magnetization       =    -0.00 Bohr mag/cell
     absolute magnetization    =     0.00 Bohr mag/cell

     iteration #  6     ecut=    60.00 Ry     beta= 0.30
     Davidson diagonalization with overlap
     ethr =  2.11E-10,  avg # of iterations =  4.1

     total cpu time spent up to now is     9182.8 secs

     total energy              =   -1988.20744676 Ry
     estimated scf accuracy    <       0.00000021 Ry

     total magnetization       =    -0.00 Bohr mag/cell
     absolute magnetization    =     0.00 Bohr mag/cell

     iteration #  7     ecut=    60.00 Ry     beta= 0.30
     Davidson diagonalization with overlap
     ethr =  1.07E-10,  avg # of iterations =  1.2

     total cpu time spent up to now is     9201.8 secs

     total energy              =   -1988.20744672 Ry
     estimated scf accuracy    <       0.00000009 Ry

     total magnetization       =     0.00 Bohr mag/cell
     absolute magnetization    =     0.00 Bohr mag/cell

     iteration #  8     ecut=    60.00 Ry     beta= 0.30
     Davidson diagonalization with overlap
     ethr =  4.79E-11,  avg # of iterations =  4.5

     Magnetic moment per site:
     atom:    1    charge:    8.1131    magn:   -0.0000    constr:    0.0000
     atom:    2    charge:    8.1131    magn:   -0.0000    constr:    0.0000
     atom:    3    charge:    8.1131    magn:   -0.0000    constr:    0.0000
     atom:    4    charge:    8.1131    magn:   -0.0000    constr:    0.0000
     atom:    5    charge:    8.0870    magn:   -0.0000    constr:    0.0000
     atom:    6    charge:    8.0870    magn:   -0.0000    constr:    0.0000
     atom:    7    charge:    8.0870    magn:   -0.0000    constr:    0.0000
     atom:    8    charge:    8.0870    magn:   -0.0000    constr:    0.0000
     atom:    9    charge:    0.3889    magn:   -0.0000    constr:    0.0000
     atom:   10    charge:    0.3889    magn:   -0.0000    constr:    0.0000
     atom:   11    charge:    0.3889    magn:   -0.0000    constr:    0.0000
     atom:   12    charge:    0.3889    magn:   -0.0000    constr:    0.0000
     atom:   13    charge:    4.0574    magn:    0.0000    constr:    0.0000
     atom:   14    charge:    4.0574    magn:    0.0000    constr:    0.0000
     atom:   15    charge:    4.0574    magn:    0.0000    constr:    0.0000
     atom:   16    charge:    4.0574    magn:    0.0000    constr:    0.0000
     atom:   17    charge:    4.0552    magn:    0.0000    constr:    0.0000
     atom:   18    charge:    4.0552    magn:    0.0000    constr:    0.0000
     atom:   19    charge:    4.0552    magn:    0.0000    constr:    0.0000
     atom:   20    charge:    4.0552    magn:    0.0000    constr:    0.0000
     atom:   21    charge:    4.0427    magn:    0.0000    constr:    0.0000
     atom:   22    charge:    4.0427    magn:    0.0000    constr:    0.0000
     atom:   23    charge:    4.0427    magn:    0.0000    constr:    0.0000
     atom:   24    charge:    4.0427    magn:    0.0000    constr:    0.0000
     atom:   25    charge:    4.0427    magn:    0.0000    constr:    0.0000
     atom:   26    charge:    4.0427    magn:    0.0000    constr:    0.0000
     atom:   27    charge:    4.0427    magn:    0.0000    constr:    0.0000
     atom:   28    charge:    4.0427    magn:    0.0000    constr:    0.0000

     total cpu time spent up to now is     9229.2 secs

     End of self-consistent calculation

 ------ SPIN UP ------------


          k = 0.0000 0.0000 0.0000 ( 15339 PWs)   bands (ev):

   -66.8891 -66.8891 -66.8867 -66.8867 -66.8181 -66.8181 -66.8180 -66.8180
   -33.6731 -33.6727 -33.6447 -33.6440 -33.6405 -33.6403 -33.6329 -33.6329
   -33.6244 -33.6239 -33.6170 -33.6169 -33.5931 -33.5923 -33.5909 -33.5906
   -33.5627 -33.5622 -33.5617 -33.5616 -33.5405 -33.5401 -33.5371 -33.5370
   -12.9657 -12.7440 -12.4621 -12.3234 -11.3301 -11.2824 -11.1845 -11.1475
   -11.1422 -10.9978 -10.9629 -10.9333 -10.8613 -10.8380 -10.7911 -10.7304
    -0.4645  -0.4096   0.0369   0.1180   0.3027   0.4522   1.0025   1.0385
     1.1849   1.5344   1.5653   1.6934   1.9121   2.2686   2.3854   2.5490
     2.7469   3.0206   3.1116   3.1306   3.1394   3.1842   3.2294   3.3448
     3.4763   3.5801   3.7359   3.7571   3.7704   4.0240   4.0265   4.0530
     4.0701   4.3286   4.3691   4.3971   4.4256   4.4854   4.6808   4.7253
     4.7363   4.8921   4.9088   4.9689   5.0634   5.0807   5.2005   5.5589
    10.2364  12.1769  12.5825  13.9121  14.1373  14.1849  14.3223  14.3921
    14.6077  14.8291  14.9114  15.0587  15.2732  15.5974  15.9304  15.9901
    16.1098  16.4773  16.5665

          k = 0.0000 0.0000-0.3936 ( 15392 PWs)   bands (ev):

   -66.8879 -66.8879 -66.8879 -66.8879 -66.8181 -66.8181 -66.8181 -66.8181
   -33.6531 -33.6531 -33.6529 -33.6529 -33.6425 -33.6425 -33.6423 -33.6423
   -33.6207 -33.6207 -33.6205 -33.6205 -33.5918 -33.5918 -33.5916 -33.5916
   -33.5621 -33.5621 -33.5619 -33.5619 -33.5388 -33.5388 -33.5387 -33.5387
   -12.6725 -12.6725 -12.5785 -12.5785 -11.2442 -11.2442 -11.2343 -11.2343
   -11.1391 -11.1391 -10.9217 -10.9217 -10.8409 -10.8409 -10.7466 -10.7466
    -0.1270  -0.1270  -0.1159  -0.1159   0.8368   0.8368   0.8881   0.8881
     1.4741   1.4741   1.8842   1.8842   2.1516   2.1516   2.4698   2.4698
     2.7279   2.7279   2.8776   2.8776   3.2064   3.2064   3.3210   3.3210
     3.3371   3.3371   3.5176   3.5176   3.8076   3.8076   3.8852   3.8852
     4.1849   4.1849   4.3237   4.3237   4.4214   4.4214   4.5700   4.5700
     4.7823   4.7823   4.7959   4.7959   5.0844   5.0844   5.1986   5.1986
    12.0552  12.0552  13.1762  13.1762  13.6639  13.6639  14.7810  14.7810
    15.0255  15.0255  15.8392  15.8392  16.0117  16.0117  16.1029  16.1029
    16.1703  16.1703  16.5567

          k =-0.4958 0.0000 0.0000 ( 15374 PWs)   bands (ev):

   -66.8891 -66.8891 -66.8867 -66.8867 -66.8181 -66.8181 -66.8181 -66.8181
   -33.6729 -33.6729 -33.6445 -33.6445 -33.6404 -33.6404 -33.6329 -33.6329
   -33.6243 -33.6243 -33.6170 -33.6170 -33.5920 -33.5920 -33.5916 -33.5916
   -33.5623 -33.5623 -33.5617 -33.5617 -33.5388 -33.5388 -33.5386 -33.5386
   -12.5264 -12.5264 -12.2147 -12.2147 -11.6858 -11.6858 -11.4452 -11.4452
   -11.0494 -11.0494 -10.8629 -10.8629 -10.8603 -10.8603 -10.8547 -10.8547
    -0.2615  -0.2615  -0.1959  -0.1959   1.2145   1.2145   1.2586   1.2586
     1.7020   1.7020   1.8041   1.8041   1.9541   1.9541   2.2648   2.2648
     2.3980   2.3980   2.5104   2.5104   2.5801   2.5801   3.0041   3.0041
     3.4881   3.4881   3.6627   3.6627   3.9013   3.9013   4.0330   4.0330
     4.5276   4.5276   4.6400   4.6400   4.6909   4.6909   4.8190   4.8190
     5.0059   5.0059   5.0546   5.0546   5.1343   5.1343   5.3426   5.3426
    12.5696  12.5696  13.2914  13.2914  13.6228  13.6228  13.9127  13.9127
    14.2503  14.2503  14.8675  14.8675  15.2055  15.2055  15.8476  15.8476
    16.6604  16.6604  16.7983

          k =-0.4958 0.0000-0.3936 ( 15436 PWs)   bands (ev):

   -66.8879 -66.8879 -66.8879 -66.8879 -66.8181 -66.8181 -66.8181 -66.8181
   -33.6530 -33.6530 -33.6529 -33.6529 -33.6427 -33.6427 -33.6422 -33.6422
   -33.6209 -33.6209 -33.6205 -33.6205 -33.5920 -33.5920 -33.5916 -33.5916
   -33.5621 -33.5621 -33.5619 -33.5619 -33.5387 -33.5387 -33.5387 -33.5387
   -12.3793 -12.3793 -12.3252 -12.3252 -11.5785 -11.5785 -11.5778 -11.5778
   -11.0455 -11.0455 -10.9587 -10.9587 -10.8368 -10.8368 -10.8329 -10.8329
    -0.1158  -0.1158  -0.0196  -0.0196   1.4395   1.4395   1.6497   1.6497
     1.7467   1.7467   1.8570   1.8570   1.9422   1.9422   2.2477   2.2477
     2.3012   2.3012   2.3147   2.3147   2.7849   2.7849   2.8322   2.8322
     3.0082   3.0082   3.4025   3.4025   3.8952   3.8952   3.9522   3.9522
     4.2398   4.2398   4.5755   4.5755   4.6885   4.6885   4.8187   4.8187
     4.9886   4.9886   5.0030   5.0030   5.1762   5.1762   5.2074   5.2074
    13.4061  13.4061  13.4968  13.4968  14.0784  14.0784  14.1319  14.1319
    14.7807  14.7807  15.0295  15.0295  15.3746  15.3746  15.4567  15.4567
    16.2486  16.2486  16.3707

 ------ SPIN DOWN ----------


          k = 0.0000 0.0000 0.0000 ( 15339 PWs)   bands (ev):

   -66.8891 -66.8891 -66.8867 -66.8867 -66.8181 -66.8181 -66.8180 -66.8180
   -33.6731 -33.6727 -33.6447 -33.6440 -33.6405 -33.6403 -33.6329 -33.6329
   -33.6244 -33.6239 -33.6170 -33.6169 -33.5931 -33.5923 -33.5909 -33.5906
   -33.5627 -33.5622 -33.5617 -33.5616 -33.5405 -33.5401 -33.5371 -33.5370
   -12.9657 -12.7440 -12.4621 -12.3234 -11.3301 -11.2823 -11.1845 -11.1475
   -11.1422 -10.9978 -10.9629 -10.9333 -10.8613 -10.8380 -10.7911 -10.7304
    -0.4645  -0.4096   0.0369   0.1180   0.3027   0.4522   1.0025   1.0385
     1.1849   1.5344   1.5653   1.6934   1.9121   2.2686   2.3854   2.5490
     2.7469   3.0206   3.1116   3.1306   3.1394   3.1842   3.2294   3.3448
     3.4763   3.5801   3.7359   3.7571   3.7704   4.0240   4.0265   4.0530
     4.0701   4.3286   4.3691   4.3971   4.4256   4.4854   4.6808   4.7253
     4.7363   4.8921   4.9088   4.9689   5.0634   5.0807   5.2005   5.5589
    10.2364  12.1769  12.5825  13.9121  14.1373  14.1849  14.3223  14.3921
    14.6077  14.8291  14.9114  15.0587  15.2732  15.5974  15.9304  15.9901
    16.1098  16.4773  16.5665

          k = 0.0000 0.0000-0.3936 ( 15392 PWs)   bands (ev):

   -66.8879 -66.8879 -66.8879 -66.8879 -66.8181 -66.8181 -66.8181 -66.8181
   -33.6531 -33.6531 -33.6529 -33.6529 -33.6425 -33.6425 -33.6423 -33.6423
   -33.6207 -33.6207 -33.6205 -33.6205 -33.5918 -33.5918 -33.5916 -33.5916
   -33.5621 -33.5621 -33.5619 -33.5619 -33.5388 -33.5388 -33.5387 -33.5387
   -12.6725 -12.6725 -12.5785 -12.5785 -11.2442 -11.2442 -11.2343 -11.2343
   -11.1391 -11.1391 -10.9217 -10.9217 -10.8409 -10.8409 -10.7466 -10.7466
    -0.1270  -0.1270  -0.1159  -0.1159   0.8368   0.8368   0.8881   0.8881
     1.4741   1.4741   1.8842   1.8842   2.1516   2.1516   2.4698   2.4698
     2.7279   2.7279   2.8776   2.8776   3.2064   3.2064   3.3210   3.3210
     3.3371   3.3371   3.5176   3.5176   3.8076   3.8076   3.8852   3.8852
     4.1849   4.1849   4.3237   4.3237   4.4214   4.4214   4.5700   4.5700
     4.7823   4.7823   4.7959   4.7959   5.0844   5.0844   5.1986   5.1986
    12.0552  12.0552  13.1762  13.1762  13.6639  13.6639  14.7810  14.7810
    15.0255  15.0255  15.8392  15.8392  16.0117  16.0117  16.1029  16.1029
    16.1703  16.1703  16.5567

          k =-0.4958 0.0000 0.0000 ( 15374 PWs)   bands (ev):

   -66.8891 -66.8891 -66.8867 -66.8867 -66.8181 -66.8181 -66.8181 -66.8181
   -33.6729 -33.6729 -33.6445 -33.6445 -33.6404 -33.6404 -33.6329 -33.6329
   -33.6243 -33.6243 -33.6170 -33.6170 -33.5920 -33.5920 -33.5916 -33.5916
   -33.5623 -33.5623 -33.5617 -33.5617 -33.5388 -33.5388 -33.5386 -33.5386
   -12.5264 -12.5264 -12.2147 -12.2147 -11.6858 -11.6858 -11.4452 -11.4452
   -11.0494 -11.0494 -10.8629 -10.8629 -10.8603 -10.8603 -10.8547 -10.8547
    -0.2615  -0.2615  -0.1959  -0.1959   1.2145   1.2145   1.2586   1.2586
     1.7020   1.7020   1.8041   1.8041   1.9541   1.9541   2.2648   2.2648
     2.3980   2.3980   2.5104   2.5104   2.5801   2.5801   3.0041   3.0041
     3.4881   3.4881   3.6627   3.6627   3.9013   3.9013   4.0330   4.0330
     4.5276   4.5276   4.6400   4.6400   4.6909   4.6909   4.8190   4.8190
     5.0059   5.0059   5.0546   5.0546   5.1343   5.1343   5.3426   5.3426
    12.5696  12.5696  13.2914  13.2914  13.6228  13.6228  13.9127  13.9127
    14.2503  14.2503  14.8675  14.8675  15.2055  15.2055  15.8476  15.8476
    16.6604  16.6604  16.7983

          k =-0.4958 0.0000-0.3936 ( 15436 PWs)   bands (ev):

   -66.8879 -66.8879 -66.8879 -66.8879 -66.8181 -66.8181 -66.8181 -66.8181
   -33.6530 -33.6530 -33.6529 -33.6529 -33.6427 -33.6427 -33.6422 -33.6422
   -33.6209 -33.6209 -33.6205 -33.6205 -33.5920 -33.5920 -33.5916 -33.5916
   -33.5621 -33.5621 -33.5619 -33.5619 -33.5387 -33.5387 -33.5387 -33.5387
   -12.3793 -12.3793 -12.3252 -12.3252 -11.5785 -11.5785 -11.5778 -11.5778
   -11.0455 -11.0455 -10.9587 -10.9587 -10.8368 -10.8368 -10.8329 -10.8329
    -0.1158  -0.1158  -0.0196  -0.0196   1.4395   1.4395   1.6497   1.6497
     1.7467   1.7467   1.8570   1.8570   1.9422   1.9422   2.2477   2.2477
     2.3012   2.3012   2.3147   2.3147   2.7849   2.7849   2.8322   2.8322
     3.0082   3.0082   3.4025   3.4025   3.8952   3.8952   3.9522   3.9522
     4.2398   4.2398   4.5755   4.5755   4.6885   4.6885   4.8187   4.8187
     4.9886   4.9886   5.0030   5.0030   5.1762   5.1762   5.2074   5.2074
    13.4061  13.4061  13.4968  13.4968  14.0784  14.0784  14.1319  14.1319
    14.7807  14.7807  15.0295  15.0295  15.3746  15.3746  15.4567  15.4567
    16.2486  16.2486  16.3707

     the Fermi energy is     6.5415 ev

!    total energy              =   -1988.20744675 Ry

     total all-electron energy =     -7937.303299 Ry
     estimated scf accuracy    <          3.1E-10 Ry
     smearing contrib. (-TS)   =      -0.00000000 Ry
     internal energy E=F+TS    =   -1988.20744675 Ry

     The total energy is F=E-TS. E is the sum of the following terms:
     one-electron contribution =    -929.84776245 Ry
     hartree contribution      =     540.43842134 Ry
     xc contribution           =    -288.09660537 Ry
     ewald contribution        =    -895.49465411 Ry
     one-center paw contrib.   =    -415.20684616 Ry

     total magnetization       =     0.00 Bohr mag/cell
     absolute magnetization    =     0.00 Bohr mag/cell

     convergence has been achieved in   8 iterations

     Forces acting on atoms (cartesian axes, Ry/au):

     atom    1 type  1   force =     0.00000000    0.00000000   -0.00000000
     atom    2 type  1   force =     0.00000000    0.00000000   -0.00000000
     atom    3 type  1   force =     0.00000000    0.00000000    0.00000000
     atom    4 type  1   force =    -0.00000000    0.00000000    0.00000000
     atom    5 type  1   force =    -0.00003573   -0.00027092    0.00000000
     atom    6 type  1   force =     0.00003573    0.00027092    0.00000000
     atom    7 type  1   force =    -0.00003573    0.00027092    0.00000000
     atom    8 type  1   force =     0.00003573   -0.00027092    0.00000000
     atom    9 type  2   force =    -0.00021414   -0.00011520    0.00000000
     atom   10 type  2   force =     0.00021414    0.00011520    0.00000000
     atom   11 type  2   force =    -0.00021414    0.00011520    0.00000000
     atom   12 type  2   force =     0.00021414   -0.00011520   -0.00000000
     atom   13 type  3   force =     0.00001363   -0.00030856    0.00000000
     atom   14 type  3   force =    -0.00001363    0.00030856   -0.00000000
     atom   15 type  3   force =     0.00001363    0.00030856    0.00000000
     atom   16 type  3   force =    -0.00001363   -0.00030856    0.00000000
     atom   17 type  3   force =    -0.00006933   -0.00020534   -0.00000000
     atom   18 type  3   force =     0.00006933    0.00020534    0.00000000
     atom   19 type  3   force =    -0.00006933    0.00020534    0.00000000
     atom   20 type  3   force =     0.00006933   -0.00020534   -0.00000000
     atom   21 type  3   force =    -0.00021417    0.00009005    0.00005261
     atom   22 type  3   force =     0.00021417   -0.00009005   -0.00005261
     atom   23 type  3   force =    -0.00021417   -0.00009005   -0.00005261
     atom   24 type  3   force =     0.00021417    0.00009005    0.00005261
     atom   25 type  3   force =     0.00021417   -0.00009005    0.00005261
     atom   26 type  3   force =    -0.00021417    0.00009005   -0.00005261
     atom   27 type  3   force =     0.00021417    0.00009005   -0.00005261
     atom   28 type  3   force =    -0.00021417   -0.00009005    0.00005261

     Total force =     0.001248     Total SCF correction =     0.000052


     Computing stress (Cartesian axis) and pressure

          total   stress  (Ry/bohr**3)                   (kbar)     P=        0.05
   0.00000150   0.00000000   0.00000000            0.22        0.00        0.00
   0.00000000  -0.00000233   0.00000000            0.00       -0.34        0.00
   0.00000000   0.00000000   0.00000195            0.00        0.00        0.29

     Energy error            =      4.7E-06
     Gradient error          =      3.1E-04
     Cell gradient error     =      2.3E-06


     number of scf cycles    =  16
     number of bfgs steps    =  15

     enthalpy old            =   -1988.2074420404 Ry
     enthalpy new            =   -1988.2074467491 Ry

     CASE: enthalpy_new < enthalpy_old

     new trust radius        =       0.0015268743 bohr
     new conv_thr            =       0.0000000010 Ry

     new unit-cell volume =   2014.14502 a.u.^3 (   298.46550 Ang^3 )
     density =      3.13099 g/cm^3

CELL_PARAMETERS (angstrom)
   4.795102024   0.000000000   0.000000000
   0.000000000  10.308407917   0.000000000
   0.000000000   0.000000000   6.038160978

ATOMIC_POSITIONS (angstrom)
Mg           -0.0000000000        0.0000000000        0.0000000000
Mg            2.3975510119        5.1542039585        0.0000000000
Mg            0.0000000000        0.0000000000        3.0190804889
Mg            2.3975510119        5.1542039585        3.0190804889
Mg            0.0414214717        2.8586726962        4.5286207334
Mg            4.7536805520        7.4497352207        1.5095402445
Mg            2.4389724836        2.2955312623        1.5095402445
Mg            2.3561295401        8.0128766546        4.5286207334
Si            0.3552961777        4.1881428337        1.5095402445
Si            4.4398058460        6.1202650832        4.5286207334
Si            2.7528471895        0.9660611248        4.5286207334
Si            2.0422548342        9.3423467922        1.5095402445
O             1.1209597835        0.9464300512        4.5286207334
O             3.6741422402        9.3619778657        1.5095402445
O             3.5185107954        4.2077739072        1.5095402445
O             1.2765912283        6.1006340097        4.5286207334
O             1.3322065266        0.5496964524        1.5095402445
O             3.4628954971        9.7587114646        4.5286207334
O             3.7297575385        4.6045075061        4.5286207334
O             1.0653444852        5.7039004108        1.5095402445
O             1.0710134163        3.4748414799        2.8215062128
O             3.7240886074        6.8335664371        3.2166547651
O             3.4685644282        1.6793624786        3.2166547651
O             1.3265375955        8.6290454383        2.8215062128
O             3.7240886074        6.8335664371        5.8405867017
O             1.0710134163        3.4748414799        0.1975742762
O             1.3265375955        8.6290454383        0.1975742762
O             3.4685644282        1.6793624786        5.8405867017



     Writing output data file ./out/oliv.save/
     NEW-OLD atomic charge density approx. for the potential

     Check: negative core charge=   -0.000009
     extrapolated charge  191.98471, renormalised to  192.00000
     Generating pointlists ...

     total cpu time spent up to now is     9261.8 secs

     Self-consistent Calculation

     iteration #  1     ecut=    60.00 Ry     beta= 0.30
     Davidson diagonalization with overlap
     ethr =  1.00E-06,  avg # of iterations =  3.0

     Threshold (ethr) on eigenvalues was too large:
     Diagonalizing with lowered threshold

     Davidson diagonalization with overlap
     ethr =  4.94E-09,  avg # of iterations =  6.2

     total cpu time spent up to now is     9344.5 secs

     total energy              =   -1988.20744625 Ry
     estimated scf accuracy    <       0.00000626 Ry

     total magnetization       =    -0.00 Bohr mag/cell
     absolute magnetization    =     0.00 Bohr mag/cell

     iteration #  2     ecut=    60.00 Ry     beta= 0.30
     Davidson diagonalization with overlap
     ethr =  3.26E-09,  avg # of iterations =  3.5

     total cpu time spent up to now is     9382.5 secs

     total energy              =   -1988.20745022 Ry
     estimated scf accuracy    <       0.00000196 Ry

     total magnetization       =    -0.00 Bohr mag/cell
     absolute magnetization    =     0.00 Bohr mag/cell

     iteration #  3     ecut=    60.00 Ry     beta= 0.30
     Davidson diagonalization with overlap
     ethr =  1.02E-09,  avg # of iterations =  4.1

     total cpu time spent up to now is     9411.6 secs

     total energy              =   -1988.20745002 Ry
     estimated scf accuracy    <       0.00000107 Ry

     total magnetization       =    -0.00 Bohr mag/cell
     absolute magnetization    =     0.00 Bohr mag/cell

     iteration #  4     ecut=    60.00 Ry     beta= 0.30
     Davidson diagonalization with overlap
     ethr =  5.57E-10,  avg # of iterations =  4.0

     total cpu time spent up to now is     9448.8 secs

     total energy              =   -1988.20745053 Ry
     estimated scf accuracy    <       0.00000031 Ry

     total magnetization       =     0.00 Bohr mag/cell
     absolute magnetization    =     0.00 Bohr mag/cell

     iteration #  5     ecut=    60.00 Ry     beta= 0.30
     Davidson diagonalization with overlap
     ethr =  1.62E-10,  avg # of iterations =  1.9

     total cpu time spent up to now is     9470.9 secs

     total energy              =   -1988.20745042 Ry
     estimated scf accuracy    <       0.00000017 Ry

     total magnetization       =     0.00 Bohr mag/cell
     absolute magnetization    =     0.00 Bohr mag/cell

     iteration #  6     ecut=    60.00 Ry     beta= 0.30
     Davidson diagonalization with overlap
     ethr =  8.93E-11,  avg # of iterations =  5.4

     total cpu time spent up to now is     9512.7 secs

     total energy              =   -1988.20745054 Ry
     estimated scf accuracy    <       0.00000022 Ry

     total magnetization       =    -0.00 Bohr mag/cell
     absolute magnetization    =     0.00 Bohr mag/cell

     iteration #  7     ecut=    60.00 Ry     beta= 0.30
     Davidson diagonalization with overlap
     ethr =  8.93E-11,  avg # of iterations =  1.9

     total cpu time spent up to now is     9534.3 secs

     total energy              =   -1988.20745049 Ry
     estimated scf accuracy    <       0.00000011 Ry

     total magnetization       =     0.00 Bohr mag/cell
     absolute magnetization    =     0.00 Bohr mag/cell

     iteration #  8     ecut=    60.00 Ry     beta= 0.30
     Davidson diagonalization with overlap
     ethr =  5.80E-11,  avg # of iterations =  4.4

     total cpu time spent up to now is     9561.5 secs

     total energy              =   -1988.20745052 Ry
     estimated scf accuracy    <          1.1E-09 Ry

     total magnetization       =    -0.00 Bohr mag/cell
     absolute magnetization    =     0.00 Bohr mag/cell

     iteration #  9     ecut=    60.00 Ry     beta= 0.30
     Davidson diagonalization with overlap
     ethr =  5.95E-13,  avg # of iterations = 14.2

     total cpu time spent up to now is     9649.6 secs

     total energy              =   -1988.20745054 Ry
     estimated scf accuracy    <          4.2E-09 Ry

     total magnetization       =    -0.00 Bohr mag/cell
     absolute magnetization    =     0.00 Bohr mag/cell

     iteration # 10     ecut=    60.00 Ry     beta= 0.30
     Davidson diagonalization with overlap
     ethr =  5.95E-13,  avg # of iterations =  1.0

     total cpu time spent up to now is     9667.9 secs

     total energy              =   -1988.20745053 Ry
     estimated scf accuracy    <          2.6E-09 Ry

     total magnetization       =    -0.00 Bohr mag/cell
     absolute magnetization    =     0.00 Bohr mag/cell

     iteration # 11     ecut=    60.00 Ry     beta= 0.30
     Davidson diagonalization with overlap
     ethr =  5.95E-13,  avg # of iterations =  4.1

     Magnetic moment per site:
     atom:    1    charge:    8.1131    magn:    0.0000    constr:    0.0000
     atom:    2    charge:    8.1131    magn:    0.0000    constr:    0.0000
     atom:    3    charge:    8.1131    magn:    0.0000    constr:    0.0000
     atom:    4    charge:    8.1131    magn:    0.0000    constr:    0.0000
     atom:    5    charge:    8.0871    magn:    0.0000    constr:    0.0000
     atom:    6    charge:    8.0871    magn:    0.0000    constr:    0.0000
     atom:    7    charge:    8.0871    magn:    0.0000    constr:    0.0000
     atom:    8    charge:    8.0871    magn:    0.0000    constr:    0.0000
     atom:    9    charge:    0.3888    magn:    0.0000    constr:    0.0000
     atom:   10    charge:    0.3888    magn:    0.0000    constr:    0.0000
     atom:   11    charge:    0.3888    magn:    0.0000    constr:    0.0000
     atom:   12    charge:    0.3888    magn:    0.0000    constr:    0.0000
     atom:   13    charge:    4.0574    magn:   -0.0000    constr:    0.0000
     atom:   14    charge:    4.0574    magn:   -0.0000    constr:    0.0000
     atom:   15    charge:    4.0574    magn:   -0.0000    constr:    0.0000
     atom:   16    charge:    4.0574    magn:   -0.0000    constr:    0.0000
     atom:   17    charge:    4.0552    magn:   -0.0000    constr:    0.0000
     atom:   18    charge:    4.0552    magn:   -0.0000    constr:    0.0000
     atom:   19    charge:    4.0552    magn:   -0.0000    constr:    0.0000
     atom:   20    charge:    4.0552    magn:   -0.0000    constr:    0.0000
     atom:   21    charge:    4.0428    magn:   -0.0000    constr:    0.0000
     atom:   22    charge:    4.0428    magn:   -0.0000    constr:    0.0000
     atom:   23    charge:    4.0428    magn:   -0.0000    constr:    0.0000
     atom:   24    charge:    4.0428    magn:   -0.0000    constr:    0.0000
     atom:   25    charge:    4.0428    magn:   -0.0000    constr:    0.0000
     atom:   26    charge:    4.0428    magn:   -0.0000    constr:    0.0000
     atom:   27    charge:    4.0428    magn:   -0.0000    constr:    0.0000
     atom:   28    charge:    4.0428    magn:   -0.0000    constr:    0.0000

     total cpu time spent up to now is     9705.9 secs

     End of self-consistent calculation

 ------ SPIN UP ------------


          k = 0.0000 0.0000 0.0000 ( 15339 PWs)   bands (ev):

   -66.8882 -66.8882 -66.8858 -66.8858 -66.8167 -66.8167 -66.8166 -66.8166
   -33.6721 -33.6717 -33.6438 -33.6432 -33.6396 -33.6394 -33.6319 -33.6319
   -33.6234 -33.6230 -33.6160 -33.6160 -33.5916 -33.5909 -33.5894 -33.5892
   -33.5613 -33.5609 -33.5603 -33.5602 -33.5391 -33.5387 -33.5356 -33.5355
   -12.9650 -12.7433 -12.4611 -12.3224 -11.3303 -11.2817 -11.1846 -11.1469
   -11.1424 -10.9963 -10.9613 -10.9319 -10.8597 -10.8363 -10.7895 -10.7288
    -0.4648  -0.4094   0.0369   0.1182   0.3035   0.4531   1.0035   1.0395
     1.1849   1.5364   1.5656   1.6945   1.9135   2.2698   2.3874   2.5493
     2.7472   3.0212   3.1127   3.1314   3.1404   3.1840   3.2305   3.3443
     3.4771   3.5808   3.7366   3.7579   3.7721   4.0253   4.0267   4.0548
     4.0711   4.3300   4.3692   4.3980   4.4261   4.4859   4.6821   4.7253
     4.7383   4.8939   4.9101   4.9713   5.0644   5.0831   5.2023   5.5612
    10.2375  12.1789  12.5831  13.9150  14.1377  14.1856  14.3245  14.3929
    14.6092  14.8326  14.9120  15.0610  15.2731  15.5973  15.9315  15.9896
    16.1088  16.4803  16.5691

          k = 0.0000 0.0000-0.3937 ( 15392 PWs)   bands (ev):

   -66.8870 -66.8870 -66.8870 -66.8870 -66.8166 -66.8166 -66.8166 -66.8166
   -33.6521 -33.6521 -33.6519 -33.6519 -33.6416 -33.6416 -33.6414 -33.6414
   -33.6198 -33.6198 -33.6196 -33.6196 -33.5904 -33.5904 -33.5902 -33.5902
   -33.5608 -33.5608 -33.5606 -33.5606 -33.5374 -33.5374 -33.5372 -33.5372
   -12.6717 -12.6717 -12.5776 -12.5776 -11.2434 -11.2434 -11.2344 -11.2344
   -11.1385 -11.1385 -10.9200 -10.9200 -10.8394 -10.8394 -10.7449 -10.7449
    -0.1270  -0.1270  -0.1160  -0.1160   0.8382   0.8382   0.8895   0.8895
     1.4753   1.4753   1.8850   1.8850   2.1529   2.1529   2.4709   2.4709
     2.7286   2.7286   2.8785   2.8785   3.2065   3.2065   3.3219   3.3219
     3.3383   3.3383   3.5174   3.5174   3.8083   3.8083   3.8853   3.8853
     4.1855   4.1855   4.3240   4.3240   4.4227   4.4227   4.5710   4.5710
     4.7844   4.7844   4.7970   4.7970   5.0866   5.0866   5.2009   5.2009
    12.0563  12.0563  13.1772  13.1772  13.6654  13.6654  14.7817  14.7817
    15.0266  15.0266  15.8418  15.8418  16.0129  16.0129  16.1035  16.1035
    16.1714  16.1714  16.5599

          k =-0.4957 0.0000 0.0000 ( 15374 PWs)   bands (ev):

   -66.8882 -66.8882 -66.8858 -66.8858 -66.8166 -66.8166 -66.8166 -66.8166
   -33.6719 -33.6719 -33.6436 -33.6436 -33.6395 -33.6395 -33.6319 -33.6319
   -33.6234 -33.6234 -33.6161 -33.6161 -33.5905 -33.5905 -33.5902 -33.5902
   -33.5610 -33.5610 -33.5604 -33.5604 -33.5373 -33.5373 -33.5372 -33.5372
   -12.5258 -12.5258 -12.2133 -12.2133 -11.6863 -11.6863 -11.4452 -11.4452
   -11.0479 -11.0479 -10.8610 -10.8610 -10.8588 -10.8588 -10.8532 -10.8532
    -0.2606  -0.2606  -0.1949  -0.1949   1.2151   1.2151   1.2593   1.2593
     1.7021   1.7021   1.8034   1.8034   1.9545   1.9545   2.2659   2.2659
     2.3987   2.3987   2.5112   2.5112   2.5814   2.5814   3.0044   3.0044
     3.4899   3.4899   3.6637   3.6637   3.9026   3.9026   4.0342   4.0342
     4.5282   4.5282   4.6419   4.6419   4.6929   4.6929   4.8187   4.8187
     5.0068   5.0068   5.0564   5.0564   5.1350   5.1350   5.3449   5.3449
    12.5707  12.5707  13.2917  13.2917  13.6236  13.6236  13.9142  13.9142
    14.2517  14.2517  14.8688  14.8688  15.2070  15.2070  15.8480  15.8480
    16.6624  16.6624  16.8007

          k =-0.4957 0.0000-0.3937 ( 15436 PWs)   bands (ev):

   -66.8870 -66.8870 -66.8870 -66.8870 -66.8167 -66.8167 -66.8166 -66.8166
   -33.6520 -33.6520 -33.6519 -33.6519 -33.6419 -33.6419 -33.6413 -33.6413
   -33.6200 -33.6200 -33.6196 -33.6196 -33.5905 -33.5905 -33.5902 -33.5902
   -33.5608 -33.5608 -33.5606 -33.5606 -33.5373 -33.5373 -33.5372 -33.5372
   -12.3784 -12.3784 -12.3243 -12.3243 -11.5786 -11.5786 -11.5781 -11.5781
   -11.0439 -11.0439 -10.9572 -10.9572 -10.8351 -10.8351 -10.8314 -10.8314
    -0.1148  -0.1148  -0.0186  -0.0186   1.4397   1.4397   1.6502   1.6502
     1.7478   1.7478   1.8576   1.8576   1.9428   1.9428   2.2473   2.2473
     2.3017   2.3017   2.3161   2.3161   2.7867   2.7867   2.8322   2.8322
     3.0098   3.0098   3.4033   3.4033   3.8958   3.8958   3.9533   3.9533
     4.2408   4.2408   4.5772   4.5772   4.6891   4.6891   4.8203   4.8203
     4.9897   4.9897   5.0031   5.0031   5.1778   5.1778   5.2094   5.2094
    13.4063  13.4063  13.4984  13.4984  14.0802  14.0802  14.1325  14.1325
    14.7817  14.7817  15.0310  15.0310  15.3754  15.3754  15.4564  15.4564
    16.2512  16.2512  16.3717

 ------ SPIN DOWN ----------


          k = 0.0000 0.0000 0.0000 ( 15339 PWs)   bands (ev):

   -66.8882 -66.8882 -66.8858 -66.8858 -66.8167 -66.8167 -66.8166 -66.8166
   -33.6721 -33.6717 -33.6438 -33.6432 -33.6396 -33.6394 -33.6319 -33.6319
   -33.6234 -33.6230 -33.6160 -33.6160 -33.5916 -33.5909 -33.5894 -33.5892
   -33.5613 -33.5609 -33.5603 -33.5602 -33.5391 -33.5387 -33.5356 -33.5355
   -12.9650 -12.7433 -12.4611 -12.3224 -11.3303 -11.2817 -11.1846 -11.1469
   -11.1424 -10.9963 -10.9613 -10.9319 -10.8597 -10.8363 -10.7895 -10.7288
    -0.4648  -0.4094   0.0369   0.1182   0.3035   0.4531   1.0035   1.0395
     1.1849   1.5364   1.5656   1.6945   1.9135   2.2698   2.3874   2.5493
     2.7472   3.0212   3.1127   3.1314   3.1404   3.1840   3.2305   3.3443
     3.4771   3.5808   3.7366   3.7579   3.7721   4.0253   4.0267   4.0548
     4.0711   4.3300   4.3692   4.3980   4.4261   4.4859   4.6821   4.7253
     4.7383   4.8939   4.9101   4.9713   5.0644   5.0831   5.2023   5.5612
    10.2375  12.1789  12.5831  13.9150  14.1377  14.1856  14.3245  14.3929
    14.6092  14.8326  14.9120  15.0610  15.2731  15.5973  15.9315  15.9896
    16.1088  16.4803  16.5691

          k = 0.0000 0.0000-0.3937 ( 15392 PWs)   bands (ev):

   -66.8870 -66.8870 -66.8870 -66.8870 -66.8166 -66.8166 -66.8166 -66.8166
   -33.6521 -33.6521 -33.6519 -33.6519 -33.6416 -33.6416 -33.6414 -33.6414
   -33.6198 -33.6198 -33.6196 -33.6196 -33.5904 -33.5904 -33.5902 -33.5902
   -33.5608 -33.5608 -33.5606 -33.5606 -33.5374 -33.5374 -33.5372 -33.5372
   -12.6717 -12.6717 -12.5776 -12.5776 -11.2434 -11.2434 -11.2344 -11.2344
   -11.1385 -11.1385 -10.9200 -10.9200 -10.8394 -10.8394 -10.7449 -10.7449
    -0.1270  -0.1270  -0.1160  -0.1160   0.8382   0.8382   0.8895   0.8895
     1.4753   1.4753   1.8850   1.8850   2.1529   2.1529   2.4709   2.4709
     2.7286   2.7286   2.8785   2.8785   3.2065   3.2065   3.3219   3.3219
     3.3383   3.3383   3.5174   3.5174   3.8083   3.8083   3.8853   3.8853
     4.1855   4.1855   4.3240   4.3240   4.4227   4.4227   4.5710   4.5710
     4.7844   4.7844   4.7970   4.7970   5.0866   5.0866   5.2009   5.2009
    12.0563  12.0563  13.1772  13.1772  13.6654  13.6654  14.7817  14.7817
    15.0266  15.0266  15.8418  15.8418  16.0129  16.0129  16.1035  16.1035
    16.1714  16.1714  16.5599

          k =-0.4957 0.0000 0.0000 ( 15374 PWs)   bands (ev):

   -66.8882 -66.8882 -66.8858 -66.8858 -66.8166 -66.8166 -66.8166 -66.8166
   -33.6719 -33.6719 -33.6436 -33.6436 -33.6395 -33.6395 -33.6319 -33.6319
   -33.6234 -33.6234 -33.6161 -33.6161 -33.5905 -33.5905 -33.5902 -33.5902
   -33.5610 -33.5610 -33.5604 -33.5604 -33.5373 -33.5373 -33.5372 -33.5372
   -12.5258 -12.5258 -12.2134 -12.2134 -11.6864 -11.6864 -11.4452 -11.4452
   -11.0479 -11.0479 -10.8610 -10.8610 -10.8588 -10.8588 -10.8532 -10.8532
    -0.2606  -0.2606  -0.1949  -0.1949   1.2151   1.2151   1.2593   1.2593
     1.7021   1.7021   1.8034   1.8034   1.9545   1.9545   2.2659   2.2659
     2.3987   2.3987   2.5112   2.5112   2.5814   2.5814   3.0044   3.0044
     3.4899   3.4899   3.6637   3.6637   3.9026   3.9026   4.0342   4.0342
     4.5282   4.5282   4.6419   4.6419   4.6929   4.6929   4.8187   4.8187
     5.0068   5.0068   5.0564   5.0564   5.1350   5.1350   5.3449   5.3449
    12.5707  12.5707  13.2917  13.2917  13.6236  13.6236  13.9142  13.9142
    14.2517  14.2517  14.8688  14.8688  15.2070  15.2070  15.8480  15.8480
    16.6624  16.6624  16.8007

          k =-0.4957 0.0000-0.3937 ( 15436 PWs)   bands (ev):

   -66.8870 -66.8870 -66.8870 -66.8870 -66.8167 -66.8167 -66.8166 -66.8166
   -33.6520 -33.6520 -33.6519 -33.6519 -33.6419 -33.6419 -33.6413 -33.6413
   -33.6200 -33.6200 -33.6196 -33.6196 -33.5905 -33.5905 -33.5902 -33.5902
   -33.5608 -33.5608 -33.5606 -33.5606 -33.5373 -33.5373 -33.5372 -33.5372
   -12.3784 -12.3784 -12.3243 -12.3243 -11.5786 -11.5786 -11.5781 -11.5781
   -11.0439 -11.0439 -10.9572 -10.9572 -10.8351 -10.8351 -10.8314 -10.8314
    -0.1148  -0.1148  -0.0186  -0.0186   1.4397   1.4397   1.6502   1.6502
     1.7478   1.7478   1.8576   1.8576   1.9428   1.9428   2.2473   2.2473
     2.3017   2.3017   2.3161   2.3161   2.7867   2.7867   2.8322   2.8322
     3.0098   3.0098   3.4033   3.4033   3.8958   3.8958   3.9533   3.9533
     4.2408   4.2408   4.5772   4.5772   4.6891   4.6891   4.8203   4.8203
     4.9897   4.9897   5.0031   5.0031   5.1778   5.1778   5.2094   5.2094
    13.4063  13.4063  13.4984  13.4984  14.0802  14.0802  14.1325  14.1325
    14.7817  14.7817  15.0310  15.0310  15.3754  15.3754  15.4564  15.4564
    16.2512  16.2512  16.3717

     the Fermi energy is     6.5437 ev

!    total energy              =   -1988.20745053 Ry

     total all-electron energy =     -7937.303303 Ry
     estimated scf accuracy    <          1.6E-10 Ry
     smearing contrib. (-TS)   =      -0.00000000 Ry
     internal energy E=F+TS    =   -1988.20745053 Ry

     The total energy is F=E-TS. E is the sum of the following terms:
     one-electron contribution =    -929.79992106 Ry
     hartree contribution      =     540.42225641 Ry
     xc contribution           =    -288.09758880 Ry
     ewald contribution        =    -895.52539349 Ry
     one-center paw contrib.   =    -415.20680359 Ry

     total magnetization       =    -0.00 Bohr mag/cell
     absolute magnetization    =     0.00 Bohr mag/cell

     convergence has been achieved in  11 iterations

     Forces acting on atoms (cartesian axes, Ry/au):

     atom    1 type  1   force =     0.00000000    0.00000000    0.00000000
     atom    2 type  1   force =    -0.00000000    0.00000000    0.00000000
     atom    3 type  1   force =     0.00000000    0.00000000    0.00000000
     atom    4 type  1   force =     0.00000000   -0.00000000    0.00000000
     atom    5 type  1   force =    -0.00016228   -0.00022095    0.00000000
     atom    6 type  1   force =     0.00016228    0.00022095    0.00000000
     atom    7 type  1   force =    -0.00016228    0.00022095    0.00000000
     atom    8 type  1   force =     0.00016228   -0.00022095    0.00000000
     atom    9 type  2   force =     0.00000088   -0.00009436    0.00000000
     atom   10 type  2   force =    -0.00000088    0.00009436    0.00000000
     atom   11 type  2   force =     0.00000088    0.00009436    0.00000000
     atom   12 type  2   force =    -0.00000088   -0.00009436    0.00000000
     atom   13 type  3   force =    -0.00003679   -0.00012508    0.00000000
     atom   14 type  3   force =     0.00003679    0.00012508   -0.00000000
     atom   15 type  3   force =    -0.00003679    0.00012508    0.00000000
     atom   16 type  3   force =     0.00003679   -0.00012508    0.00000000
     atom   17 type  3   force =    -0.00007357   -0.00004711   -0.00000000
     atom   18 type  3   force =     0.00007357    0.00004711    0.00000000
     atom   19 type  3   force =    -0.00007357    0.00004711    0.00000000
     atom   20 type  3   force =     0.00007357   -0.00004711   -0.00000000
     atom   21 type  3   force =    -0.00013845    0.00006922    0.00004232
     atom   22 type  3   force =     0.00013845   -0.00006922   -0.00004232
     atom   23 type  3   force =    -0.00013845   -0.00006922   -0.00004232
     atom   24 type  3   force =     0.00013845    0.00006922    0.00004232
     atom   25 type  3   force =     0.00013845   -0.00006922    0.00004232
     atom   26 type  3   force =    -0.00013845    0.00006922   -0.00004232
     atom   27 type  3   force =     0.00013845    0.00006922   -0.00004232
     atom   28 type  3   force =    -0.00013845   -0.00006922    0.00004232

     Total force =     0.000800     Total SCF correction =     0.000025


     Computing stress (Cartesian axis) and pressure

          total   stress  (Ry/bohr**3)                   (kbar)     P=        0.17
   0.00000048   0.00000000   0.00000000            0.07        0.00        0.00
   0.00000000  -0.00000062   0.00000000            0.00       -0.09        0.00
   0.00000000   0.00000000   0.00000360            0.00        0.00        0.53

     Energy error            =      3.8E-06
     Gradient error          =      2.2E-04
     Cell gradient error     =      3.6E-06


     number of scf cycles    =  17
     number of bfgs steps    =  16

     enthalpy old            =   -1988.2074467491 Ry
     enthalpy new            =   -1988.2074505320 Ry

     CASE: enthalpy_new < enthalpy_old

     new trust radius        =       0.0010874512 bohr
     new conv_thr            =       0.0000000010 Ry

     new unit-cell volume =   2014.29462 a.u.^3 (   298.48767 Ang^3 )
     density =      3.13075 g/cm^3

CELL_PARAMETERS (angstrom)
   4.795469636   0.000000000   0.000000000
   0.000000000  10.307866402   0.000000000
   0.000000000   0.000000000   6.038463774

ATOMIC_POSITIONS (angstrom)
Mg           -0.0000000000        0.0000000000        0.0000000000
Mg            2.3977348179        5.1539332011        0.0000000000
Mg            0.0000000000        0.0000000000        3.0192318871
Mg            2.3977348179        5.1539332011        3.0192318871
Mg            0.0411376223        2.8583404746        4.5288478307
Mg            4.7543320134        7.4495259275        1.5096159436
Mg            2.4388724402        2.2955927264        1.5096159436
Mg            2.3565971956        8.0122736757        4.5288478307
Si            0.3549846332        4.1877797379        1.5096159436
Si            4.4404850026        6.1200866642        4.5288478307
Si            2.7527194510        0.9661534632        4.5288478307
Si            2.0427501847        9.3417129390        1.5096159436
O             1.1207736487        0.9458732750        4.5288478307
O             3.6746959870        9.3619931272        1.5096159436
O             3.5185084666        4.2080599261        1.5096159436
O             1.2769611691        6.0998064760        4.5288478307
O             1.3323260135        0.5494424014        1.5096159436
O             3.4631436222        9.7584240007        4.5288478307
O             3.7300608314        4.6044907997        4.5288478307
O             1.0654088044        5.7033756025        1.5096159436
O             1.0705888090        3.4745144516        2.8216941538
O             3.7248808267        6.8333519505        3.2167696204
O             3.4683236269        1.6794187495        3.2167696204
O             1.3271460088        8.6284476527        2.8216941538
O             3.7248808267        6.8333519505        5.8409260409
O             1.0705888090        3.4745144516        0.1975377333
O             1.3271460088        8.6284476527        0.1975377333
O             3.4683236269        1.6794187495        5.8409260409



     Writing output data file ./out/oliv.save/
     NEW-OLD atomic charge density approx. for the potential

     Check: negative core charge=   -0.000009
     extrapolated charge  192.01426, renormalised to  192.00000
     Generating pointlists ...

     total cpu time spent up to now is     9738.4 secs

     Self-consistent Calculation

     iteration #  1     ecut=    60.00 Ry     beta= 0.30
     Davidson diagonalization with overlap
     ethr =  1.00E-06,  avg # of iterations =  2.0

     Threshold (ethr) on eigenvalues was too large:
     Diagonalizing with lowered threshold

     Davidson diagonalization with overlap
     ethr =  2.55E-09,  avg # of iterations =  7.1

     total cpu time spent up to now is     9815.9 secs

     total energy              =   -1988.20744885 Ry
     estimated scf accuracy    <       0.00000445 Ry

     total magnetization       =    -0.00 Bohr mag/cell
     absolute magnetization    =     0.00 Bohr mag/cell

     iteration #  2     ecut=    60.00 Ry     beta= 0.30
     Davidson diagonalization with overlap
     ethr =  2.32E-09,  avg # of iterations =  4.2

     total cpu time spent up to now is     9850.7 secs

     total energy              =   -1988.20745227 Ry
     estimated scf accuracy    <       0.00000146 Ry

     total magnetization       =    -0.00 Bohr mag/cell
     absolute magnetization    =     0.00 Bohr mag/cell

     iteration #  3     ecut=    60.00 Ry     beta= 0.30
     Davidson diagonalization with overlap
     ethr =  7.59E-10,  avg # of iterations =  5.5

     total cpu time spent up to now is     9879.5 secs

     total energy              =   -1988.20745204 Ry
     estimated scf accuracy    <       0.00000095 Ry

     total magnetization       =     0.00 Bohr mag/cell
     absolute magnetization    =     0.00 Bohr mag/cell

     iteration #  4     ecut=    60.00 Ry     beta= 0.30
     Davidson diagonalization with overlap
     ethr =  4.93E-10,  avg # of iterations =  4.5

     total cpu time spent up to now is     9911.7 secs

     total energy              =   -1988.20745243 Ry
     estimated scf accuracy    <       0.00000028 Ry

     total magnetization       =     0.00 Bohr mag/cell
     absolute magnetization    =     0.00 Bohr mag/cell

     iteration #  5     ecut=    60.00 Ry     beta= 0.30
     Davidson diagonalization with overlap
     ethr =  1.44E-10,  avg # of iterations =  2.0

     total cpu time spent up to now is     9934.2 secs

     total energy              =   -1988.20745232 Ry
     estimated scf accuracy    <       0.00000022 Ry

     total magnetization       =    -0.00 Bohr mag/cell
     absolute magnetization    =     0.00 Bohr mag/cell

     iteration #  6     ecut=    60.00 Ry     beta= 0.30
     Davidson diagonalization with overlap
     ethr =  1.17E-10,  avg # of iterations =  4.4

     total cpu time spent up to now is     9962.9 secs

     total energy              =   -1988.20745240 Ry
     estimated scf accuracy    <       0.00000002 Ry

     total magnetization       =    -0.00 Bohr mag/cell
     absolute magnetization    =     0.00 Bohr mag/cell

     iteration #  7     ecut=    60.00 Ry     beta= 0.30
     Davidson diagonalization with overlap
     ethr =  8.52E-12,  avg # of iterations =  7.0

     total cpu time spent up to now is    10004.5 secs

     total energy              =   -1988.20745240 Ry
     estimated scf accuracy    <       0.00000004 Ry

     total magnetization       =    -0.00 Bohr mag/cell
     absolute magnetization    =     0.00 Bohr mag/cell

     iteration #  8     ecut=    60.00 Ry     beta= 0.30
     Davidson diagonalization with overlap
     ethr =  8.52E-12,  avg # of iterations =  3.2

     total cpu time spent up to now is    10029.7 secs

     total energy              =   -1988.20745240 Ry
     estimated scf accuracy    <          5.7E-09 Ry

     total magnetization       =     0.00 Bohr mag/cell
     absolute magnetization    =     0.00 Bohr mag/cell

     iteration #  9     ecut=    60.00 Ry     beta= 0.30
     Davidson diagonalization with overlap
     ethr =  2.95E-12,  avg # of iterations =  5.5

     total cpu time spent up to now is    10068.1 secs

     total energy              =   -1988.20745240 Ry
     estimated scf accuracy    <          5.3E-09 Ry

     total magnetization       =    -0.00 Bohr mag/cell
     absolute magnetization    =     0.00 Bohr mag/cell

     iteration # 10     ecut=    60.00 Ry     beta= 0.30
     Davidson diagonalization with overlap
     ethr =  2.78E-12,  avg # of iterations =  1.4

     total cpu time spent up to now is    10087.5 secs

     total energy              =   -1988.20745240 Ry
     estimated scf accuracy    <          1.6E-09 Ry

     total magnetization       =     0.00 Bohr mag/cell
     absolute magnetization    =     0.00 Bohr mag/cell

     iteration # 11     ecut=    60.00 Ry     beta= 0.30
     Davidson diagonalization with overlap
     ethr =  8.47E-13,  avg # of iterations =  4.2

     Magnetic moment per site:
     atom:    1    charge:    8.1131    magn:    0.0000    constr:    0.0000
     atom:    2    charge:    8.1131    magn:    0.0000    constr:    0.0000
     atom:    3    charge:    8.1131    magn:    0.0000    constr:    0.0000
     atom:    4    charge:    8.1131    magn:    0.0000    constr:    0.0000
     atom:    5    charge:    8.0870    magn:    0.0000    constr:    0.0000
     atom:    6    charge:    8.0870    magn:    0.0000    constr:    0.0000
     atom:    7    charge:    8.0870    magn:    0.0000    constr:    0.0000
     atom:    8    charge:    8.0870    magn:    0.0000    constr:    0.0000
     atom:    9    charge:    0.3888    magn:    0.0000    constr:    0.0000
     atom:   10    charge:    0.3888    magn:    0.0000    constr:    0.0000
     atom:   11    charge:    0.3888    magn:    0.0000    constr:    0.0000
     atom:   12    charge:    0.3888    magn:    0.0000    constr:    0.0000
     atom:   13    charge:    4.0574    magn:   -0.0000    constr:    0.0000
     atom:   14    charge:    4.0574    magn:   -0.0000    constr:    0.0000
     atom:   15    charge:    4.0574    magn:   -0.0000    constr:    0.0000
     atom:   16    charge:    4.0574    magn:   -0.0000    constr:    0.0000
     atom:   17    charge:    4.0552    magn:   -0.0000    constr:    0.0000
     atom:   18    charge:    4.0552    magn:   -0.0000    constr:    0.0000
     atom:   19    charge:    4.0552    magn:   -0.0000    constr:    0.0000
     atom:   20    charge:    4.0552    magn:   -0.0000    constr:    0.0000
     atom:   21    charge:    4.0428    magn:    0.0000    constr:    0.0000
     atom:   22    charge:    4.0428    magn:    0.0000    constr:    0.0000
     atom:   23    charge:    4.0428    magn:    0.0000    constr:    0.0000
     atom:   24    charge:    4.0428    magn:    0.0000    constr:    0.0000
     atom:   25    charge:    4.0428    magn:    0.0000    constr:    0.0000
     atom:   26    charge:    4.0428    magn:    0.0000    constr:    0.0000
     atom:   27    charge:    4.0428    magn:    0.0000    constr:    0.0000
     atom:   28    charge:    4.0428    magn:    0.0000    constr:    0.0000

     total cpu time spent up to now is    10118.5 secs

     End of self-consistent calculation

 ------ SPIN UP ------------


          k = 0.0000 0.0000 0.0000 ( 15339 PWs)   bands (ev):

   -66.8891 -66.8890 -66.8866 -66.8866 -66.8179 -66.8179 -66.8178 -66.8178
   -33.6729 -33.6725 -33.6447 -33.6441 -33.6406 -33.6404 -33.6327 -33.6327
   -33.6243 -33.6239 -33.6169 -33.6169 -33.5928 -33.5921 -33.5906 -33.5903
   -33.5625 -33.5621 -33.5615 -33.5614 -33.5402 -33.5399 -33.5368 -33.5367
   -12.9653 -12.7436 -12.4614 -12.3227 -11.3312 -11.2820 -11.1855 -11.1475
   -11.1434 -10.9969 -10.9612 -10.9325 -10.8595 -10.8361 -10.7900 -10.7293
    -0.4658  -0.4101   0.0357   0.1171   0.3029   0.4529   1.0030   1.0391
     1.1843   1.5366   1.5651   1.6941   1.9135   2.2694   2.3876   2.5482
     2.7468   3.0208   3.1127   3.1305   3.1396   3.1826   3.2300   3.3430
     3.4766   3.5802   3.7357   3.7577   3.7726   4.0251   4.0257   4.0545
     4.0700   4.3299   4.3683   4.3971   4.4253   4.4848   4.6812   4.7242
     4.7376   4.8932   4.9097   4.9717   5.0637   5.0833   5.2019   5.5613
    10.2360  12.1785  12.5806  13.9146  14.1361  14.1857  14.3242  14.3929
    14.6072  14.8331  14.9097  15.0594  15.2708  15.5945  15.9300  15.9866
    16.1054  16.4796  16.5689

          k = 0.0000 0.0000-0.3937 ( 15392 PWs)   bands (ev):

   -66.8879 -66.8879 -66.8878 -66.8878 -66.8178 -66.8178 -66.8178 -66.8178
   -33.6529 -33.6529 -33.6527 -33.6527 -33.6425 -33.6425 -33.6423 -33.6423
   -33.6206 -33.6206 -33.6205 -33.6205 -33.5916 -33.5916 -33.5914 -33.5914
   -33.5620 -33.5620 -33.5618 -33.5618 -33.5385 -33.5385 -33.5384 -33.5384
   -12.6720 -12.6720 -12.5780 -12.5780 -11.2438 -11.2438 -11.2353 -11.2353
   -11.1392 -11.1392 -10.9201 -10.9201 -10.8398 -10.8398 -10.7452 -10.7452
    -0.1280  -0.1280  -0.1171  -0.1171   0.8381   0.8381   0.8890   0.8890
     1.4749   1.4749   1.8844   1.8844   2.1526   2.1526   2.4704   2.4704
     2.7281   2.7281   2.8782   2.8782   3.2054   3.2054   3.3213   3.3213
     3.3383   3.3383   3.5160   3.5160   3.8078   3.8078   3.8842   3.8842
     4.1848   4.1848   4.3231   4.3231   4.4222   4.4222   4.5704   4.5704
     4.7845   4.7845   4.7963   4.7963   5.0867   5.0867   5.2012   5.2012
    12.0548  12.0548  13.1755  13.1755  13.6641  13.6641  14.7807  14.7807
    15.0260  15.0260  15.8411  15.8411  16.0112  16.0112  16.1017  16.1017
    16.1695  16.1695  16.5598

          k =-0.4957 0.0000 0.0000 ( 15374 PWs)   bands (ev):

   -66.8891 -66.8891 -66.8866 -66.8866 -66.8178 -66.8178 -66.8178 -66.8178
   -33.6727 -33.6727 -33.6445 -33.6445 -33.6405 -33.6405 -33.6327 -33.6327
   -33.6243 -33.6243 -33.6169 -33.6169 -33.5917 -33.5917 -33.5914 -33.5914
   -33.5622 -33.5622 -33.5616 -33.5616 -33.5385 -33.5385 -33.5383 -33.5383
   -12.5261 -12.5261 -12.2134 -12.2134 -11.6875 -11.6875 -11.4462 -11.4462
   -11.0478 -11.0478 -10.8607 -10.8607 -10.8594 -10.8594 -10.8537 -10.8537
    -0.2613  -0.2613  -0.1955  -0.1955   1.2149   1.2149   1.2590   1.2590
     1.7013   1.7013   1.8021   1.8021   1.9538   1.9538   2.2655   2.2655
     2.3981   2.3981   2.5109   2.5109   2.5810   2.5810   3.0035   3.0035
     3.4899   3.4899   3.6628   3.6628   3.9018   3.9018   4.0340   4.0340
     4.5277   4.5277   4.6413   4.6413   4.6931   4.6931   4.8171   4.8171
     5.0060   5.0060   5.0564   5.0564   5.1341   5.1341   5.3449   5.3449
    12.5689  12.5689  13.2899  13.2899  13.6219  13.6219  13.9145  13.9145
    14.2502  14.2502  14.8673  14.8673  15.2053  15.2053  15.8463  15.8463
    16.6615  16.6615  16.8002

          k =-0.4957 0.0000-0.3937 ( 15436 PWs)   bands (ev):

   -66.8879 -66.8879 -66.8879 -66.8879 -66.8178 -66.8178 -66.8178 -66.8178
   -33.6528 -33.6528 -33.6527 -33.6527 -33.6428 -33.6428 -33.6423 -33.6423
   -33.6209 -33.6209 -33.6204 -33.6204 -33.5917 -33.5917 -33.5914 -33.5914
   -33.5620 -33.5620 -33.5618 -33.5618 -33.5385 -33.5385 -33.5384 -33.5384
   -12.3786 -12.3786 -12.3246 -12.3246 -11.5796 -11.5796 -11.5792 -11.5792
   -11.0439 -11.0439 -10.9575 -10.9575 -10.8351 -10.8351 -10.8317 -10.8317
    -0.1154  -0.1154  -0.0193  -0.0193   1.4387   1.4387   1.6497   1.6497
     1.7475   1.7475   1.8569   1.8569   1.9424   1.9424   2.2460   2.2460
     2.3010   2.3010   2.3158   2.3158   2.7866   2.7866   2.8310   2.8310
     3.0097   3.0097   3.4027   3.4027   3.8950   3.8950   3.9527   3.9527
     4.2403   4.2403   4.5769   4.5769   4.6883   4.6883   4.8203   4.8203
     4.9892   4.9892   5.0019   5.0019   5.1775   5.1775   5.2094   5.2094
    13.4039  13.4039  13.4974  13.4974  14.0802  14.0802  14.1310  14.1310
    14.7800  14.7800  15.0292  15.0292  15.3741  15.3741  15.4537  15.4537
    16.2505  16.2505  16.3698

 ------ SPIN DOWN ----------


          k = 0.0000 0.0000 0.0000 ( 15339 PWs)   bands (ev):

   -66.8891 -66.8890 -66.8866 -66.8866 -66.8179 -66.8179 -66.8178 -66.8178
   -33.6729 -33.6725 -33.6447 -33.6441 -33.6406 -33.6404 -33.6327 -33.6327
   -33.6243 -33.6239 -33.6169 -33.6169 -33.5928 -33.5921 -33.5906 -33.5903
   -33.5625 -33.5621 -33.5615 -33.5614 -33.5402 -33.5399 -33.5368 -33.5367
   -12.9653 -12.7436 -12.4614 -12.3227 -11.3312 -11.2820 -11.1855 -11.1475
   -11.1434 -10.9969 -10.9612 -10.9325 -10.8595 -10.8361 -10.7900 -10.7293
    -0.4658  -0.4101   0.0357   0.1171   0.3029   0.4529   1.0030   1.0391
     1.1843   1.5366   1.5651   1.6941   1.9135   2.2694   2.3876   2.5482
     2.7468   3.0208   3.1127   3.1305   3.1396   3.1826   3.2300   3.3430
     3.4766   3.5802   3.7357   3.7577   3.7726   4.0251   4.0257   4.0545
     4.0700   4.3299   4.3683   4.3971   4.4253   4.4848   4.6812   4.7242
     4.7376   4.8932   4.9097   4.9717   5.0637   5.0833   5.2019   5.5613
    10.2360  12.1785  12.5806  13.9146  14.1361  14.1857  14.3242  14.3929
    14.6072  14.8331  14.9097  15.0594  15.2708  15.5945  15.9300  15.9866
    16.1054  16.4796  16.5689

          k = 0.0000 0.0000-0.3937 ( 15392 PWs)   bands (ev):

   -66.8879 -66.8879 -66.8878 -66.8878 -66.8178 -66.8178 -66.8178 -66.8178
   -33.6529 -33.6529 -33.6527 -33.6527 -33.6425 -33.6425 -33.6423 -33.6423
   -33.6206 -33.6206 -33.6205 -33.6205 -33.5916 -33.5916 -33.5914 -33.5914
   -33.5620 -33.5620 -33.5618 -33.5618 -33.5385 -33.5385 -33.5384 -33.5384
   -12.6720 -12.6720 -12.5780 -12.5780 -11.2438 -11.2438 -11.2353 -11.2353
   -11.1392 -11.1392 -10.9201 -10.9201 -10.8398 -10.8398 -10.7452 -10.7452
    -0.1280  -0.1280  -0.1171  -0.1171   0.8381   0.8381   0.8890   0.8890
     1.4749   1.4749   1.8844   1.8844   2.1526   2.1526   2.4704   2.4704
     2.7281   2.7281   2.8782   2.8782   3.2054   3.2054   3.3213   3.3213
     3.3383   3.3383   3.5160   3.5160   3.8078   3.8078   3.8842   3.8842
     4.1848   4.1848   4.3231   4.3231   4.4222   4.4222   4.5704   4.5704
     4.7845   4.7845   4.7963   4.7963   5.0867   5.0867   5.2012   5.2012
    12.0548  12.0548  13.1755  13.1755  13.6641  13.6641  14.7807  14.7807
    15.0260  15.0260  15.8411  15.8411  16.0112  16.0112  16.1017  16.1017
    16.1695  16.1695  16.5598

          k =-0.4957 0.0000 0.0000 ( 15374 PWs)   bands (ev):

   -66.8891 -66.8891 -66.8866 -66.8866 -66.8178 -66.8178 -66.8178 -66.8178
   -33.6727 -33.6727 -33.6445 -33.6445 -33.6405 -33.6405 -33.6327 -33.6327
   -33.6243 -33.6243 -33.6169 -33.6169 -33.5917 -33.5917 -33.5914 -33.5914
   -33.5622 -33.5622 -33.5616 -33.5616 -33.5385 -33.5385 -33.5383 -33.5383
   -12.5261 -12.5261 -12.2134 -12.2134 -11.6875 -11.6875 -11.4462 -11.4462
   -11.0478 -11.0478 -10.8607 -10.8607 -10.8594 -10.8594 -10.8537 -10.8537
    -0.2613  -0.2613  -0.1955  -0.1955   1.2149   1.2149   1.2590   1.2590
     1.7013   1.7013   1.8021   1.8021   1.9538   1.9538   2.2655   2.2655
     2.3981   2.3981   2.5109   2.5109   2.5810   2.5810   3.0035   3.0035
     3.4899   3.4899   3.6628   3.6628   3.9018   3.9018   4.0340   4.0340
     4.5277   4.5277   4.6413   4.6413   4.6931   4.6931   4.8171   4.8171
     5.0060   5.0060   5.0564   5.0564   5.1341   5.1341   5.3449   5.3449
    12.5689  12.5689  13.2899  13.2899  13.6219  13.6219  13.9145  13.9145
    14.2502  14.2502  14.8673  14.8673  15.2053  15.2053  15.8463  15.8463
    16.6615  16.6615  16.8002

          k =-0.4957 0.0000-0.3937 ( 15436 PWs)   bands (ev):

   -66.8879 -66.8879 -66.8879 -66.8879 -66.8178 -66.8178 -66.8178 -66.8178
   -33.6528 -33.6528 -33.6527 -33.6527 -33.6428 -33.6428 -33.6423 -33.6423
   -33.6209 -33.6209 -33.6204 -33.6204 -33.5917 -33.5917 -33.5914 -33.5914
   -33.5620 -33.5620 -33.5618 -33.5618 -33.5385 -33.5385 -33.5384 -33.5384
   -12.3786 -12.3786 -12.3246 -12.3246 -11.5796 -11.5796 -11.5792 -11.5792
   -11.0439 -11.0439 -10.9575 -10.9575 -10.8351 -10.8351 -10.8317 -10.8317
    -0.1154  -0.1154  -0.0193  -0.0193   1.4387   1.4387   1.6497   1.6497
     1.7475   1.7475   1.8569   1.8569   1.9424   1.9424   2.2460   2.2460
     2.3010   2.3010   2.3158   2.3158   2.7866   2.7866   2.8310   2.8310
     3.0097   3.0097   3.4027   3.4027   3.8950   3.8950   3.9527   3.9527
     4.2403   4.2403   4.5769   4.5769   4.6883   4.6883   4.8203   4.8203
     4.9892   4.9892   5.0019   5.0019   5.1775   5.1775   5.2094   5.2094
    13.4039  13.4039  13.4974  13.4974  14.0802  14.0802  14.1310  14.1310
    14.7800  14.7800  15.0292  15.0292  15.3741  15.3741  15.4537  15.4537
    16.2505  16.2505  16.3698

     the Fermi energy is     6.5432 ev

!    total energy              =   -1988.20745240 Ry

     total all-electron energy =     -7937.303305 Ry
     estimated scf accuracy    <          7.5E-11 Ry
     smearing contrib. (-TS)   =      -0.00000000 Ry
     internal energy E=F+TS    =   -1988.20745240 Ry

     The total energy is F=E-TS. E is the sum of the following terms:
     one-electron contribution =    -929.83339875 Ry
     hartree contribution      =     540.43357837 Ry
     xc contribution           =    -288.09650716 Ry
     ewald contribution        =    -895.50438132 Ry
     one-center paw contrib.   =    -415.20674356 Ry

     total magnetization       =    -0.00 Bohr mag/cell
     absolute magnetization    =     0.00 Bohr mag/cell

     convergence has been achieved in  11 iterations

     Forces acting on atoms (cartesian axes, Ry/au):

     atom    1 type  1   force =     0.00000000    0.00000000    0.00000000
     atom    2 type  1   force =    -0.00000000    0.00000000   -0.00000000
     atom    3 type  1   force =     0.00000000   -0.00000000    0.00000000
     atom    4 type  1   force =     0.00000000    0.00000000    0.00000000
     atom    5 type  1   force =    -0.00018761   -0.00014036    0.00000000
     atom    6 type  1   force =     0.00018761    0.00014036    0.00000000
     atom    7 type  1   force =    -0.00018761    0.00014036    0.00000000
     atom    8 type  1   force =     0.00018761   -0.00014036    0.00000000
     atom    9 type  2   force =     0.00007873    0.00003429    0.00000000
     atom   10 type  2   force =    -0.00007873   -0.00003429    0.00000000
     atom   11 type  2   force =     0.00007873   -0.00003429    0.00000000
     atom   12 type  2   force =    -0.00007873    0.00003429    0.00000000
     atom   13 type  3   force =     0.00002013    0.00002699    0.00000000
     atom   14 type  3   force =    -0.00002013   -0.00002699   -0.00000000
     atom   15 type  3   force =     0.00002013   -0.00002699    0.00000000
     atom   16 type  3   force =    -0.00002013    0.00002699    0.00000000
     atom   17 type  3   force =    -0.00007448    0.00003070    0.00000000
     atom   18 type  3   force =     0.00007448   -0.00003070    0.00000000
     atom   19 type  3   force =    -0.00007448   -0.00003070    0.00000000
     atom   20 type  3   force =     0.00007448    0.00003070   -0.00000000
     atom   21 type  3   force =    -0.00010245    0.00004458   -0.00003139
     atom   22 type  3   force =     0.00010245   -0.00004458    0.00003139
     atom   23 type  3   force =    -0.00010245   -0.00004458    0.00003139
     atom   24 type  3   force =     0.00010245    0.00004458   -0.00003139
     atom   25 type  3   force =     0.00010245   -0.00004458   -0.00003139
     atom   26 type  3   force =    -0.00010245    0.00004458    0.00003139
     atom   27 type  3   force =     0.00010245    0.00004458    0.00003139
     atom   28 type  3   force =    -0.00010245   -0.00004458   -0.00003139

     Total force =     0.000622     Total SCF correction =     0.000013


     Computing stress (Cartesian axis) and pressure

          total   stress  (Ry/bohr**3)                   (kbar)     P=        0.07
  -0.00000101   0.00000000   0.00000000           -0.15        0.00        0.00
   0.00000000  -0.00000009   0.00000000            0.00       -0.01        0.00
   0.00000000   0.00000000   0.00000254            0.00        0.00        0.37

     Energy error            =      1.9E-06
     Gradient error          =      1.9E-04
     Cell gradient error     =      2.5E-06


     number of scf cycles    =  18
     number of bfgs steps    =  17

     enthalpy old            =   -1988.2074505320 Ry
     enthalpy new            =   -1988.2074524043 Ry

     CASE: enthalpy_new < enthalpy_old

     new trust radius        =       0.0009607043 bohr
     new conv_thr            =       0.0000000010 Ry

     new unit-cell volume =   2014.46211 a.u.^3 (   298.51249 Ang^3 )
     density =      3.13049 g/cm^3

CELL_PARAMETERS (angstrom)
   4.795483945   0.000000000   0.000000000
   0.000000000  10.307589554   0.000000000
   0.000000000   0.000000000   6.039110060

ATOMIC_POSITIONS (angstrom)
Mg           -0.0000000000        0.0000000000        0.0000000000
Mg            2.3977419724        5.1537947770        0.0000000000
Mg            0.0000000000        0.0000000000        3.0195550301
Mg            2.3977419724        5.1537947770        3.0195550301
Mg            0.0408530283        2.8580890460        4.5293325452
Mg            4.7546309165        7.4495005079        1.5097775151
Mg            2.4385950007        2.2957057309        1.5097775151
Mg            2.3568889441        8.0118838230        4.5293325452
Si            0.3548678530        4.1876061564        1.5097775151
Si            4.4406160918        6.1199833976        4.5293325452
Si            2.7526098254        0.9661886206        4.5293325452
Si            2.0428741194        9.3414009333        1.5097775151
O             1.1206646095        0.9456530510        4.5293325452
O             3.6748193353        9.3619365029        1.5097775151
O             3.5184065819        4.2081417260        1.5097775151
O             1.2770773629        6.0994478280        4.5293325452
O             1.3322875844        0.5493129312        1.5097775151
O             3.4631963604        9.7582766227        4.5293325452
O             3.7300295568        4.6044818457        4.5293325452
O             1.0654543880        5.7031077082        1.5097775151
O             1.0702926880        3.4743927263        2.8219874336
O             3.7251912568        6.8331968277        3.2171226266
O             3.4680346604        1.6794020507        3.2171226266
O             1.3274492844        8.6281875032        2.8219874336
O             3.7251912568        6.8331968277        5.8415424637
O             1.0702926880        3.4743927263        0.1975675965
O             1.3274492844        8.6281875032        0.1975675965
O             3.4680346604        1.6794020507        5.8415424637



     Writing output data file ./out/oliv.save/
     NEW-OLD atomic charge density approx. for the potential

     Check: negative core charge=   -0.000009
     extrapolated charge  192.01596, renormalised to  192.00000
     Generating pointlists ...

     total cpu time spent up to now is    10153.5 secs

     Self-consistent Calculation

     iteration #  1     ecut=    60.00 Ry     beta= 0.30
     Davidson diagonalization with overlap
     ethr =  1.00E-06,  avg # of iterations =  2.0

     Threshold (ethr) on eigenvalues was too large:
     Diagonalizing with lowered threshold

     Davidson diagonalization with overlap
     ethr =  2.23E-09,  avg # of iterations =  7.4

     total cpu time spent up to now is    10235.8 secs

     total energy              =   -1988.20744894 Ry
     estimated scf accuracy    <       0.00000401 Ry

     total magnetization       =    -0.00 Bohr mag/cell
     absolute magnetization    =     0.00 Bohr mag/cell

     iteration #  2     ecut=    60.00 Ry     beta= 0.30
     Davidson diagonalization with overlap
     ethr =  2.09E-09,  avg # of iterations =  6.9

     total cpu time spent up to now is    10275.2 secs

     total energy              =   -1988.20745343 Ry
     estimated scf accuracy    <       0.00000170 Ry

     total magnetization       =     0.00 Bohr mag/cell
     absolute magnetization    =     0.00 Bohr mag/cell

     iteration #  3     ecut=    60.00 Ry     beta= 0.30
     Davidson diagonalization with overlap
     ethr =  8.86E-10,  avg # of iterations =  3.2

     total cpu time spent up to now is    10299.1 secs

     total energy              =   -1988.20745293 Ry
     estimated scf accuracy    <       0.00000095 Ry

     total magnetization       =    -0.00 Bohr mag/cell
     absolute magnetization    =     0.00 Bohr mag/cell

     iteration #  4     ecut=    60.00 Ry     beta= 0.30
     Davidson diagonalization with overlap
     ethr =  4.92E-10,  avg # of iterations =  4.5

     total cpu time spent up to now is    10336.1 secs

     total energy              =   -1988.20745348 Ry
     estimated scf accuracy    <       0.00000042 Ry

     total magnetization       =     0.00 Bohr mag/cell
     absolute magnetization    =     0.00 Bohr mag/cell

     iteration #  5     ecut=    60.00 Ry     beta= 0.30
     Davidson diagonalization with overlap
     ethr =  2.17E-10,  avg # of iterations =  1.8

     total cpu time spent up to now is    10356.8 secs

     total energy              =   -1988.20745325 Ry
     estimated scf accuracy    <       0.00000034 Ry

     total magnetization       =     0.00 Bohr mag/cell
     absolute magnetization    =     0.00 Bohr mag/cell

     iteration #  6     ecut=    60.00 Ry     beta= 0.30
     Davidson diagonalization with overlap
     ethr =  1.75E-10,  avg # of iterations =  4.0

     total cpu time spent up to now is    10390.9 secs

     total energy              =   -1988.20745339 Ry
     estimated scf accuracy    <       0.00000029 Ry

     total magnetization       =     0.00 Bohr mag/cell
     absolute magnetization    =     0.00 Bohr mag/cell

     iteration #  7     ecut=    60.00 Ry     beta= 0.30
     Davidson diagonalization with overlap
     ethr =  1.50E-10,  avg # of iterations =  1.4

     total cpu time spent up to now is    10409.8 secs

     total energy              =   -1988.20745336 Ry
     estimated scf accuracy    <       0.00000008 Ry

     total magnetization       =    -0.00 Bohr mag/cell
     absolute magnetization    =     0.00 Bohr mag/cell

     iteration #  8     ecut=    60.00 Ry     beta= 0.30
     Davidson diagonalization with overlap
     ethr =  4.18E-11,  avg # of iterations =  4.2

     total cpu time spent up to now is    10437.7 secs

     total energy              =   -1988.20745340 Ry
     estimated scf accuracy    <          5.1E-09 Ry

     total magnetization       =     0.00 Bohr mag/cell
     absolute magnetization    =     0.00 Bohr mag/cell

     iteration #  9     ecut=    60.00 Ry     beta= 0.30
     Davidson diagonalization with overlap
     ethr =  2.68E-12,  avg # of iterations =  9.5

     total cpu time spent up to now is    10477.1 secs

     total energy              =   -1988.20745340 Ry
     estimated scf accuracy    <       0.00000001 Ry

     total magnetization       =    -0.00 Bohr mag/cell
     absolute magnetization    =     0.00 Bohr mag/cell

     iteration # 10     ecut=    60.00 Ry     beta= 0.30
     Davidson diagonalization with overlap
     ethr =  2.68E-12,  avg # of iterations =  2.8

     total cpu time spent up to now is    10502.7 secs

     total energy              =   -1988.20745340 Ry
     estimated scf accuracy    <          2.3E-09 Ry

     total magnetization       =    -0.00 Bohr mag/cell
     absolute magnetization    =     0.00 Bohr mag/cell

     iteration # 11     ecut=    60.00 Ry     beta= 0.30
     Davidson diagonalization with overlap
     ethr =  1.18E-12,  avg # of iterations =  4.1

     Magnetic moment per site:
     atom:    1    charge:    8.1131    magn:   -0.0000    constr:    0.0000
     atom:    2    charge:    8.1131    magn:   -0.0000    constr:    0.0000
     atom:    3    charge:    8.1131    magn:   -0.0000    constr:    0.0000
     atom:    4    charge:    8.1131    magn:   -0.0000    constr:    0.0000
     atom:    5    charge:    8.0870    magn:   -0.0000    constr:    0.0000
     atom:    6    charge:    8.0870    magn:   -0.0000    constr:    0.0000
     atom:    7    charge:    8.0870    magn:   -0.0000    constr:    0.0000
     atom:    8    charge:    8.0870    magn:   -0.0000    constr:    0.0000
     atom:    9    charge:    0.3888    magn:   -0.0000    constr:    0.0000
     atom:   10    charge:    0.3888    magn:   -0.0000    constr:    0.0000
     atom:   11    charge:    0.3888    magn:   -0.0000    constr:    0.0000
     atom:   12    charge:    0.3888    magn:   -0.0000    constr:    0.0000
     atom:   13    charge:    4.0573    magn:    0.0000    constr:    0.0000
     atom:   14    charge:    4.0573    magn:    0.0000    constr:    0.0000
     atom:   15    charge:    4.0573    magn:    0.0000    constr:    0.0000
     atom:   16    charge:    4.0573    magn:    0.0000    constr:    0.0000
     atom:   17    charge:    4.0552    magn:    0.0000    constr:    0.0000
     atom:   18    charge:    4.0552    magn:    0.0000    constr:    0.0000
     atom:   19    charge:    4.0552    magn:    0.0000    constr:    0.0000
     atom:   20    charge:    4.0552    magn:    0.0000    constr:    0.0000
     atom:   21    charge:    4.0428    magn:    0.0000    constr:    0.0000
     atom:   22    charge:    4.0428    magn:    0.0000    constr:    0.0000
     atom:   23    charge:    4.0428    magn:    0.0000    constr:    0.0000
     atom:   24    charge:    4.0428    magn:    0.0000    constr:    0.0000
     atom:   25    charge:    4.0428    magn:    0.0000    constr:    0.0000
     atom:   26    charge:    4.0428    magn:    0.0000    constr:    0.0000
     atom:   27    charge:    4.0428    magn:    0.0000    constr:    0.0000
     atom:   28    charge:    4.0428    magn:    0.0000    constr:    0.0000

     total cpu time spent up to now is    10540.5 secs

     End of self-consistent calculation

 ------ SPIN UP ------------


          k = 0.0000 0.0000 0.0000 ( 15339 PWs)   bands (ev):

   -66.8902 -66.8902 -66.8878 -66.8877 -66.8195 -66.8195 -66.8194 -66.8194
   -33.6739 -33.6735 -33.6459 -33.6452 -33.6417 -33.6415 -33.6337 -33.6337
   -33.6255 -33.6250 -33.6181 -33.6180 -33.5945 -33.5937 -33.5923 -33.5920
   -33.5641 -33.5637 -33.5631 -33.5630 -33.5419 -33.5415 -33.5384 -33.5383
   -12.9659 -12.7442 -12.4622 -12.3235 -11.3319 -11.2825 -11.1863 -11.1482
   -11.1443 -10.9978 -10.9616 -10.9334 -10.8599 -10.8365 -10.7908 -10.7302
    -0.4664  -0.4108   0.0349   0.1162   0.3021   0.4524   1.0023   1.0384
     1.1837   1.5360   1.5646   1.6934   1.9131   2.2687   2.3872   2.5471
     2.7464   3.0201   3.1125   3.1295   3.1388   3.1814   3.2292   3.3421
     3.4758   3.5796   3.7349   3.7574   3.7726   4.0246   4.0248   4.0537
     4.0687   4.3294   4.3676   4.3961   4.4244   4.4835   4.6801   4.7234
     4.7364   4.8920   4.9091   4.9712   5.0627   5.0828   5.2009   5.5606
    10.2347  12.1779  12.5787  13.9132  14.1349  14.1857  14.3235  14.3932
    14.6054  14.8325  14.9082  15.0575  15.2692  15.5920  15.9288  15.9847
    16.1027  16.4780  16.5681

          k = 0.0000 0.0000-0.3936 ( 15392 PWs)   bands (ev):

   -66.8890 -66.8890 -66.8890 -66.8890 -66.8195 -66.8195 -66.8195 -66.8195
   -33.6539 -33.6539 -33.6537 -33.6537 -33.6437 -33.6437 -33.6435 -33.6435
   -33.6218 -33.6218 -33.6216 -33.6216 -33.5932 -33.5932 -33.5930 -33.5930
   -33.5636 -33.5636 -33.5634 -33.5634 -33.5401 -33.5401 -33.5400 -33.5400
   -12.6726 -12.6726 -12.5787 -12.5787 -11.2444 -11.2444 -11.2361 -11.2361
   -11.1400 -11.1400 -10.9207 -10.9207 -10.8405 -10.8405 -10.7458 -10.7458
    -0.1287  -0.1287  -0.1179  -0.1179   0.8375   0.8375   0.8882   0.8882
     1.4741   1.4741   1.8835   1.8835   2.1520   2.1520   2.4696   2.4696
     2.7274   2.7274   2.8778   2.8778   3.2045   3.2045   3.3205   3.3205
     3.3380   3.3380   3.5149   3.5149   3.8070   3.8070   3.8834   3.8834
     4.1838   4.1838   4.3224   4.3224   4.4215   4.4215   4.5696   4.5696
     4.7840   4.7840   4.7956   4.7956   5.0861   5.0861   5.2008   5.2008
    12.0533  12.0533  13.1743  13.1743  13.6630  13.6630  14.7801  14.7801
    15.0254  15.0254  15.8397  15.8397  16.0096  16.0096  16.1005  16.1005
    16.1677  16.1677  16.5585

          k =-0.4957 0.0000 0.0000 ( 15374 PWs)   bands (ev):

   -66.8902 -66.8902 -66.8877 -66.8877 -66.8195 -66.8195 -66.8195 -66.8195
   -33.6737 -33.6737 -33.6457 -33.6457 -33.6416 -33.6416 -33.6337 -33.6337
   -33.6254 -33.6254 -33.6181 -33.6181 -33.5934 -33.5934 -33.5930 -33.5930
   -33.5638 -33.5638 -33.5632 -33.5632 -33.5401 -33.5401 -33.5399 -33.5399
   -12.5268 -12.5268 -12.2140 -12.2140 -11.6884 -11.6884 -11.4470 -11.4470
   -11.0482 -11.0482 -10.8611 -10.8611 -10.8603 -10.8603 -10.8545 -10.8545
    -0.2620  -0.2620  -0.1962  -0.1962   1.2144   1.2144   1.2584   1.2584
     1.7007   1.7007   1.8014   1.8014   1.9531   1.9531   2.2648   2.2648
     2.3976   2.3976   2.5104   2.5104   2.5801   2.5801   3.0028   3.0028
     3.4894   3.4894   3.6616   3.6616   3.9007   3.9007   4.0334   4.0334
     4.5271   4.5271   4.6400   4.6400   4.6927   4.6927   4.8159   4.8159
     5.0051   5.0051   5.0560   5.0560   5.1332   5.1332   5.3442   5.3442
    12.5674  12.5674  13.2886  13.2886  13.6206  13.6206  13.9147  13.9147
    14.2487  14.2487  14.8659  14.8659  15.2034  15.2034  15.8453  15.8453
    16.6603  16.6603  16.7991

          k =-0.4957 0.0000-0.3936 ( 15436 PWs)   bands (ev):

   -66.8890 -66.8890 -66.8890 -66.8890 -66.8195 -66.8195 -66.8195 -66.8195
   -33.6539 -33.6539 -33.6538 -33.6538 -33.6439 -33.6439 -33.6434 -33.6434
   -33.6220 -33.6220 -33.6216 -33.6216 -33.5934 -33.5934 -33.5930 -33.5930
   -33.5636 -33.5636 -33.5634 -33.5634 -33.5401 -33.5401 -33.5400 -33.5400
   -12.3792 -12.3792 -12.3253 -12.3253 -11.5804 -11.5804 -11.5801 -11.5801
   -11.0443 -11.0443 -10.9581 -10.9581 -10.8357 -10.8357 -10.8325 -10.8325
    -0.1161  -0.1161  -0.0201  -0.0201   1.4378   1.4378   1.6491   1.6491
     1.7468   1.7468   1.8562   1.8562   1.9419   1.9419   2.2451   2.2451
     2.3003   2.3003   2.3150   2.3150   2.7860   2.7860   2.8300   2.8300
     3.0091   3.0091   3.4019   3.4019   3.8942   3.8942   3.9519   3.9519
     4.2395   4.2395   4.5762   4.5762   4.6875   4.6875   4.8199   4.8199
     4.9885   4.9885   5.0011   5.0011   5.1770   5.1770   5.2088   5.2088
    13.4023  13.4023  13.4964  13.4964  14.0800  14.0800  14.1300  14.1300
    14.7785  14.7785  15.0273  15.0273  15.3730  15.3730  15.4517  15.4517
    16.2490  16.2490  16.3681

 ------ SPIN DOWN ----------


          k = 0.0000 0.0000 0.0000 ( 15339 PWs)   bands (ev):

   -66.8902 -66.8902 -66.8878 -66.8877 -66.8195 -66.8195 -66.8194 -66.8194
   -33.6739 -33.6735 -33.6459 -33.6452 -33.6417 -33.6415 -33.6337 -33.6337
   -33.6255 -33.6250 -33.6181 -33.6180 -33.5945 -33.5937 -33.5923 -33.5920
   -33.5641 -33.5637 -33.5631 -33.5630 -33.5419 -33.5415 -33.5384 -33.5383
   -12.9659 -12.7442 -12.4622 -12.3235 -11.3319 -11.2825 -11.1863 -11.1482
   -11.1443 -10.9978 -10.9616 -10.9334 -10.8599 -10.8365 -10.7908 -10.7302
    -0.4664  -0.4108   0.0349   0.1162   0.3021   0.4524   1.0023   1.0384
     1.1837   1.5360   1.5646   1.6934   1.9131   2.2687   2.3872   2.5471
     2.7464   3.0201   3.1125   3.1295   3.1388   3.1814   3.2292   3.3421
     3.4759   3.5796   3.7349   3.7574   3.7726   4.0246   4.0248   4.0537
     4.0687   4.3294   4.3676   4.3961   4.4244   4.4835   4.6801   4.7234
     4.7364   4.8920   4.9091   4.9712   5.0627   5.0828   5.2009   5.5606
    10.2347  12.1779  12.5787  13.9132  14.1349  14.1857  14.3235  14.3932
    14.6054  14.8325  14.9082  15.0575  15.2692  15.5920  15.9288  15.9847
    16.1027  16.4780  16.5681

          k = 0.0000 0.0000-0.3936 ( 15392 PWs)   bands (ev):

   -66.8890 -66.8890 -66.8890 -66.8890 -66.8195 -66.8195 -66.8195 -66.8195
   -33.6539 -33.6539 -33.6537 -33.6537 -33.6437 -33.6437 -33.6435 -33.6435
   -33.6218 -33.6218 -33.6216 -33.6216 -33.5932 -33.5932 -33.5930 -33.5930
   -33.5636 -33.5636 -33.5634 -33.5634 -33.5401 -33.5401 -33.5400 -33.5400
   -12.6726 -12.6726 -12.5787 -12.5787 -11.2444 -11.2444 -11.2361 -11.2361
   -11.1400 -11.1400 -10.9207 -10.9207 -10.8405 -10.8405 -10.7458 -10.7458
    -0.1287  -0.1287  -0.1179  -0.1179   0.8375   0.8375   0.8882   0.8882
     1.4741   1.4741   1.8835   1.8835   2.1520   2.1520   2.4696   2.4696
     2.7274   2.7274   2.8778   2.8778   3.2045   3.2045   3.3205   3.3205
     3.3380   3.3380   3.5149   3.5149   3.8070   3.8070   3.8834   3.8834
     4.1838   4.1838   4.3224   4.3224   4.4215   4.4215   4.5696   4.5696
     4.7840   4.7840   4.7956   4.7956   5.0861   5.0861   5.2008   5.2008
    12.0533  12.0533  13.1743  13.1743  13.6630  13.6630  14.7801  14.7801
    15.0254  15.0254  15.8397  15.8397  16.0096  16.0096  16.1005  16.1005
    16.1677  16.1677  16.5585

          k =-0.4957 0.0000 0.0000 ( 15374 PWs)   bands (ev):

   -66.8902 -66.8902 -66.8877 -66.8877 -66.8195 -66.8195 -66.8195 -66.8195
   -33.6737 -33.6737 -33.6457 -33.6457 -33.6416 -33.6416 -33.6337 -33.6337
   -33.6254 -33.6254 -33.6181 -33.6181 -33.5934 -33.5934 -33.5930 -33.5930
   -33.5638 -33.5638 -33.5632 -33.5632 -33.5401 -33.5401 -33.5399 -33.5399
   -12.5268 -12.5268 -12.2140 -12.2140 -11.6884 -11.6884 -11.4470 -11.4470
   -11.0482 -11.0482 -10.8611 -10.8611 -10.8603 -10.8603 -10.8545 -10.8545
    -0.2620  -0.2620  -0.1962  -0.1962   1.2144   1.2144   1.2584   1.2584
     1.7007   1.7007   1.8014   1.8014   1.9531   1.9531   2.2648   2.2648
     2.3976   2.3976   2.5104   2.5104   2.5801   2.5801   3.0028   3.0028
     3.4894   3.4894   3.6616   3.6616   3.9007   3.9007   4.0334   4.0334
     4.5271   4.5271   4.6400   4.6400   4.6927   4.6927   4.8159   4.8159
     5.0051   5.0051   5.0560   5.0560   5.1332   5.1332   5.3442   5.3442
    12.5674  12.5674  13.2886  13.2886  13.6206  13.6206  13.9147  13.9147
    14.2487  14.2487  14.8659  14.8659  15.2034  15.2034  15.8453  15.8453
    16.6603  16.6603  16.7991

          k =-0.4957 0.0000-0.3936 ( 15436 PWs)   bands (ev):

   -66.8890 -66.8890 -66.8890 -66.8890 -66.8195 -66.8195 -66.8195 -66.8195
   -33.6539 -33.6539 -33.6538 -33.6538 -33.6439 -33.6439 -33.6434 -33.6434
   -33.6220 -33.6220 -33.6216 -33.6216 -33.5934 -33.5934 -33.5930 -33.5930
   -33.5636 -33.5636 -33.5634 -33.5634 -33.5401 -33.5401 -33.5400 -33.5400
   -12.3792 -12.3792 -12.3253 -12.3253 -11.5804 -11.5804 -11.5801 -11.5801
   -11.0443 -11.0443 -10.9581 -10.9581 -10.8357 -10.8357 -10.8325 -10.8325
    -0.1161  -0.1161  -0.0201  -0.0201   1.4378   1.4378   1.6491   1.6491
     1.7468   1.7468   1.8562   1.8562   1.9419   1.9419   2.2451   2.2451
     2.3003   2.3003   2.3150   2.3150   2.7860   2.7860   2.8300   2.8300
     3.0091   3.0091   3.4019   3.4019   3.8942   3.8942   3.9519   3.9519
     4.2395   4.2395   4.5762   4.5762   4.6875   4.6875   4.8199   4.8199
     4.9885   4.9885   5.0011   5.0011   5.1770   5.1770   5.2088   5.2088
    13.4023  13.4023  13.4964  13.4964  14.0800  14.0800  14.1300  14.1300
    14.7785  14.7785  15.0273  15.0273  15.3730  15.3730  15.4517  15.4517
    16.2490  16.2490  16.3681

     the Fermi energy is     6.5421 ev

!    total energy              =   -1988.20745341 Ry

     total all-electron energy =     -7937.303306 Ry
     estimated scf accuracy    <          3.6E-11 Ry
     smearing contrib. (-TS)   =      -0.00000000 Ry
     internal energy E=F+TS    =   -1988.20745341 Ry

     The total energy is F=E-TS. E is the sum of the following terms:
     one-electron contribution =    -929.87565500 Ry
     hartree contribution      =     540.44746681 Ry
     xc contribution           =    -288.09564852 Ry
     ewald contribution        =    -895.47688880 Ry
     one-center paw contrib.   =    -415.20672791 Ry

     total magnetization       =    -0.00 Bohr mag/cell
     absolute magnetization    =     0.00 Bohr mag/cell

     convergence has been achieved in  11 iterations

     Forces acting on atoms (cartesian axes, Ry/au):

     atom    1 type  1   force =     0.00000000    0.00000000    0.00000000
     atom    2 type  1   force =     0.00000000    0.00000000    0.00000000
     atom    3 type  1   force =     0.00000000    0.00000000    0.00000000
     atom    4 type  1   force =    -0.00000000    0.00000000    0.00000000
     atom    5 type  1   force =    -0.00015595   -0.00006362   -0.00000000
     atom    6 type  1   force =     0.00015595    0.00006362    0.00000000
     atom    7 type  1   force =    -0.00015595    0.00006362    0.00000000
     atom    8 type  1   force =     0.00015595   -0.00006362   -0.00000000
     atom    9 type  2   force =     0.00008062    0.00010095    0.00000000
     atom   10 type  2   force =    -0.00008062   -0.00010095    0.00000000
     atom   11 type  2   force =     0.00008062   -0.00010095    0.00000000
     atom   12 type  2   force =    -0.00008062    0.00010095    0.00000000
     atom   13 type  3   force =    -0.00000753    0.00008397    0.00000000
     atom   14 type  3   force =     0.00000753   -0.00008397    0.00000000
     atom   15 type  3   force =    -0.00000753   -0.00008397   -0.00000000
     atom   16 type  3   force =     0.00000753    0.00008397    0.00000000
     atom   17 type  3   force =    -0.00008649    0.00009749    0.00000000
     atom   18 type  3   force =     0.00008649   -0.00009749    0.00000000
     atom   19 type  3   force =    -0.00008649   -0.00009749    0.00000000
     atom   20 type  3   force =     0.00008649    0.00009749    0.00000000
     atom   21 type  3   force =    -0.00007084    0.00001617   -0.00007047
     atom   22 type  3   force =     0.00007084   -0.00001617    0.00007047
     atom   23 type  3   force =    -0.00007084   -0.00001617    0.00007047
     atom   24 type  3   force =     0.00007084    0.00001617   -0.00007047
     atom   25 type  3   force =     0.00007084   -0.00001617   -0.00007047
     atom   26 type  3   force =    -0.00007084    0.00001617    0.00007047
     atom   27 type  3   force =     0.00007084    0.00001617    0.00007047
     atom   28 type  3   force =    -0.00007084   -0.00001617   -0.00007047

     Total force =     0.000599     Total SCF correction =     0.000014


     Computing stress (Cartesian axis) and pressure

          total   stress  (Ry/bohr**3)                   (kbar)     P=       -0.03
  -0.00000128   0.00000000   0.00000000           -0.19        0.00        0.00
   0.00000000   0.00000002   0.00000000            0.00        0.00        0.00
   0.00000000   0.00000000   0.00000070            0.00        0.00        0.10

     Energy error            =      1.0E-06
     Gradient error          =      1.6E-04
     Cell gradient error     =      1.3E-06


     number of scf cycles    =  19
     number of bfgs steps    =  18

     enthalpy old            =   -1988.2074524043 Ry
     enthalpy new            =   -1988.2074534055 Ry

     CASE: enthalpy_new < enthalpy_old

     new trust radius        =       0.0008896483 bohr
     new conv_thr            =       0.0000000010 Ry

     new unit-cell volume =   2014.54245 a.u.^3 (   298.52439 Ang^3 )
     density =      3.13037 g/cm^3

CELL_PARAMETERS (angstrom)
   4.795307935   0.000000000   0.000000000
   0.000000000  10.307357460   0.000000000
   0.000000000   0.000000000   6.039708584

ATOMIC_POSITIONS (angstrom)
Mg           -0.0000000000        0.0000000000        0.0000000000
Mg            2.3976539675        5.1536787300        0.0000000000
Mg            0.0000000000        0.0000000000        3.0198542922
Mg            2.3976539675        5.1536787300        3.0198542922
Mg            0.0405575444        2.8578419066        4.5297814384
Mg            4.7547503905        7.4495155534        1.5099271461
Mg            2.4382115118        2.2958368234        1.5099271461
Mg            2.3570964231        8.0115206366        4.5297814384
Si            0.3548312770        4.1875522178        1.5099271461
Si            4.4404766579        6.1198052422        4.5297814384
Si            2.7524852445        0.9661265122        4.5297814384
Si            2.0428226904        9.3412309478        1.5099271461
O             1.1205517301        0.9455722240        4.5297814384
O             3.6747562049        9.3617852360        1.5099271461
O             3.5182056975        4.2081065060        1.5099271461
O             1.2771022374        6.0992509540        4.5297814384
O             1.3321233461        0.5493092812        1.5099271461
O             3.4631845888        9.7580481788        4.5297814384
O             3.7297773136        4.6043694488        4.5297814384
O             1.0655306213        5.7029880112        1.5099271461
O             1.0700063924        3.4743152986        2.8222204045
O             3.7253015425        6.8330421614        3.2174881800
O             3.4676603599        1.6793634314        3.2174881800
O             1.3276475750        8.6279940286        2.8222204045
O             3.7253015425        6.8330421614        5.8420746967
O             1.0700063924        3.4743152986        0.1976338878
O             1.3276475750        8.6279940286        0.1976338878
O             3.4676603599        1.6793634314        5.8420746967



     Writing output data file ./out/oliv.save/
     NEW-OLD atomic charge density approx. for the potential

     Check: negative core charge=   -0.000009
     extrapolated charge  192.00766, renormalised to  192.00000
     Generating pointlists ...

     total cpu time spent up to now is    10573.7 secs

     Self-consistent Calculation

     iteration #  1     ecut=    60.00 Ry     beta= 0.30
     Davidson diagonalization with overlap
     ethr =  1.00E-06,  avg # of iterations =  2.0

     Threshold (ethr) on eigenvalues was too large:
     Diagonalizing with lowered threshold

     Davidson diagonalization with overlap
     ethr =  8.53E-10,  avg # of iterations =  9.8

     total cpu time spent up to now is    10657.6 secs

     total energy              =   -1988.20745308 Ry
     estimated scf accuracy    <       0.00000110 Ry

     total magnetization       =    -0.00 Bohr mag/cell
     absolute magnetization    =     0.00 Bohr mag/cell

     iteration #  2     ecut=    60.00 Ry     beta= 0.30
     Davidson diagonalization with overlap
     ethr =  5.73E-10,  avg # of iterations =  5.9

     total cpu time spent up to now is    10697.8 secs

     total energy              =   -1988.20745411 Ry
     estimated scf accuracy    <       0.00000040 Ry

     total magnetization       =    -0.00 Bohr mag/cell
     absolute magnetization    =     0.00 Bohr mag/cell

     iteration #  3     ecut=    60.00 Ry     beta= 0.30
     Davidson diagonalization with overlap
     ethr =  2.11E-10,  avg # of iterations =  4.4

     total cpu time spent up to now is    10732.3 secs

     total energy              =   -1988.20745401 Ry
     estimated scf accuracy    <       0.00000023 Ry

     total magnetization       =     0.00 Bohr mag/cell
     absolute magnetization    =     0.00 Bohr mag/cell

     iteration #  4     ecut=    60.00 Ry     beta= 0.30
     Davidson diagonalization with overlap
     ethr =  1.21E-10,  avg # of iterations =  4.5

     total cpu time spent up to now is    10772.9 secs

     total energy              =   -1988.20745414 Ry
     estimated scf accuracy    <       0.00000011 Ry

     total magnetization       =     0.00 Bohr mag/cell
     absolute magnetization    =     0.00 Bohr mag/cell

     iteration #  5     ecut=    60.00 Ry     beta= 0.30
     Davidson diagonalization with overlap
     ethr =  5.78E-11,  avg # of iterations =  1.9

     total cpu time spent up to now is    10796.6 secs

     total energy              =   -1988.20745408 Ry
     estimated scf accuracy    <       0.00000008 Ry

     total magnetization       =    -0.00 Bohr mag/cell
     absolute magnetization    =     0.00 Bohr mag/cell

     iteration #  6     ecut=    60.00 Ry     beta= 0.30
     Davidson diagonalization with overlap
     ethr =  4.13E-11,  avg # of iterations =  4.0

     total cpu time spent up to now is    10836.1 secs

     total energy              =   -1988.20745412 Ry
     estimated scf accuracy    <       0.00000008 Ry

     total magnetization       =     0.00 Bohr mag/cell
     absolute magnetization    =     0.00 Bohr mag/cell

     iteration #  7     ecut=    60.00 Ry     beta= 0.30
     Davidson diagonalization with overlap
     ethr =  4.13E-11,  avg # of iterations =  1.0

     total cpu time spent up to now is    10857.7 secs

     total energy              =   -1988.20745411 Ry
     estimated scf accuracy    <       0.00000002 Ry

     total magnetization       =    -0.00 Bohr mag/cell
     absolute magnetization    =     0.00 Bohr mag/cell

     iteration #  8     ecut=    60.00 Ry     beta= 0.30
     Davidson diagonalization with overlap
     ethr =  1.10E-11,  avg # of iterations =  4.2

     total cpu time spent up to now is    10889.6 secs

     total energy              =   -1988.20745412 Ry
     estimated scf accuracy    <          1.3E-09 Ry

     total magnetization       =    -0.00 Bohr mag/cell
     absolute magnetization    =     0.00 Bohr mag/cell

     iteration #  9     ecut=    60.00 Ry     beta= 0.30
     Davidson diagonalization with overlap
     ethr =  6.91E-13,  avg # of iterations = 10.2

     total cpu time spent up to now is    10933.7 secs

     total energy              =   -1988.20745412 Ry
     estimated scf accuracy    <          2.0E-09 Ry

     total magnetization       =    -0.00 Bohr mag/cell
     absolute magnetization    =     0.00 Bohr mag/cell

     iteration # 10     ecut=    60.00 Ry     beta= 0.30
     Davidson diagonalization with overlap
     ethr =  6.91E-13,  avg # of iterations =  1.2

     Magnetic moment per site:
     atom:    1    charge:    8.1130    magn:   -0.0000    constr:    0.0000
     atom:    2    charge:    8.1130    magn:   -0.0000    constr:    0.0000
     atom:    3    charge:    8.1130    magn:   -0.0000    constr:    0.0000
     atom:    4    charge:    8.1130    magn:   -0.0000    constr:    0.0000
     atom:    5    charge:    8.0870    magn:   -0.0000    constr:    0.0000
     atom:    6    charge:    8.0870    magn:   -0.0000    constr:    0.0000
     atom:    7    charge:    8.0870    magn:   -0.0000    constr:    0.0000
     atom:    8    charge:    8.0870    magn:   -0.0000    constr:    0.0000
     atom:    9    charge:    0.3888    magn:   -0.0000    constr:    0.0000
     atom:   10    charge:    0.3888    magn:   -0.0000    constr:    0.0000
     atom:   11    charge:    0.3888    magn:   -0.0000    constr:    0.0000
     atom:   12    charge:    0.3888    magn:   -0.0000    constr:    0.0000
     atom:   13    charge:    4.0573    magn:    0.0000    constr:    0.0000
     atom:   14    charge:    4.0573    magn:    0.0000    constr:    0.0000
     atom:   15    charge:    4.0573    magn:    0.0000    constr:    0.0000
     atom:   16    charge:    4.0573    magn:    0.0000    constr:    0.0000
     atom:   17    charge:    4.0552    magn:    0.0000    constr:    0.0000
     atom:   18    charge:    4.0552    magn:    0.0000    constr:    0.0000
     atom:   19    charge:    4.0552    magn:    0.0000    constr:    0.0000
     atom:   20    charge:    4.0552    magn:    0.0000    constr:    0.0000
     atom:   21    charge:    4.0428    magn:    0.0000    constr:    0.0000
     atom:   22    charge:    4.0428    magn:    0.0000    constr:    0.0000
     atom:   23    charge:    4.0428    magn:    0.0000    constr:    0.0000
     atom:   24    charge:    4.0428    magn:    0.0000    constr:    0.0000
     atom:   25    charge:    4.0428    magn:    0.0000    constr:    0.0000
     atom:   26    charge:    4.0428    magn:    0.0000    constr:    0.0000
     atom:   27    charge:    4.0428    magn:    0.0000    constr:    0.0000
     atom:   28    charge:    4.0428    magn:    0.0000    constr:    0.0000

     total cpu time spent up to now is    10954.8 secs

     End of self-consistent calculation

 ------ SPIN UP ------------


          k = 0.0000 0.0000 0.0000 ( 15339 PWs)   bands (ev):

   -66.8908 -66.8907 -66.8884 -66.8883 -66.8205 -66.8205 -66.8204 -66.8204
   -33.6744 -33.6741 -33.6465 -33.6459 -33.6423 -33.6421 -33.6343 -33.6343
   -33.6261 -33.6256 -33.6187 -33.6186 -33.5955 -33.5947 -33.5933 -33.5930
   -33.5651 -33.5647 -33.5641 -33.5640 -33.5428 -33.5424 -33.5394 -33.5392
   -12.9663 -12.7446 -12.4627 -12.3241 -11.3322 -11.2828 -11.1867 -11.1486
   -11.1447 -10.9983 -10.9619 -10.9339 -10.8603 -10.8369 -10.7913 -10.7307
    -0.4665  -0.4111   0.0347   0.1158   0.3016   0.4521   1.0020   1.0381
     1.1834   1.5356   1.5642   1.6931   1.9127   2.2682   2.3868   2.5465
     2.7463   3.0197   3.1124   3.1289   3.1385   3.1807   3.2288   3.3419
     3.4753   3.5794   3.7346   3.7572   3.7726   4.0242   4.0245   4.0533
     4.0678   4.3290   4.3674   4.3956   4.4240   4.4826   4.6794   4.7233
     4.7357   4.8912   4.9088   4.9708   5.0619   5.0823   5.2001   5.5601
    10.2342  12.1777  12.5783  13.9122  14.1346  14.1856  14.3230  14.3934
    14.6048  14.8321  14.9081  15.0566  15.2689  15.5906  15.9283  15.9847
    16.1014  16.4768  16.5679

          k = 0.0000 0.0000-0.3936 ( 15392 PWs)   bands (ev):

   -66.8896 -66.8896 -66.8896 -66.8896 -66.8204 -66.8204 -66.8204 -66.8204
   -33.6545 -33.6545 -33.6543 -33.6543 -33.6443 -33.6443 -33.6441 -33.6441
   -33.6224 -33.6224 -33.6222 -33.6222 -33.5942 -33.5942 -33.5940 -33.5940
   -33.5646 -33.5646 -33.5643 -33.5643 -33.5411 -33.5411 -33.5410 -33.5410
   -12.6731 -12.6731 -12.5791 -12.5791 -11.2448 -11.2448 -11.2365 -11.2365
   -11.1404 -11.1404 -10.9211 -10.9211 -10.8410 -10.8410 -10.7463 -10.7463
    -0.1290  -0.1290  -0.1182  -0.1182   0.8371   0.8371   0.8876   0.8876
     1.4737   1.4737   1.8829   1.8829   2.1515   2.1515   2.4691   2.4691
     2.7270   2.7270   2.8776   2.8776   3.2041   3.2041   3.3200   3.3200
     3.3380   3.3380   3.5144   3.5144   3.8064   3.8064   3.8831   3.8831
     4.1831   4.1831   4.3222   4.3222   4.4211   4.4211   4.5692   4.5692
     4.7837   4.7837   4.7953   4.7953   5.0857   5.0857   5.2005   5.2005
    12.0528  12.0528  13.1741  13.1741  13.6626  13.6626  14.7801  14.7801
    15.0250  15.0250  15.8386  15.8386  16.0093  16.0093  16.1004  16.1004
    16.1671  16.1671  16.5572

          k =-0.4957 0.0000 0.0000 ( 15374 PWs)   bands (ev):

   -66.8908 -66.8908 -66.8883 -66.8883 -66.8204 -66.8204 -66.8204 -66.8204
   -33.6742 -33.6742 -33.6463 -33.6463 -33.6422 -33.6422 -33.6343 -33.6343
   -33.6260 -33.6260 -33.6187 -33.6187 -33.5944 -33.5944 -33.5940 -33.5940
   -33.5648 -33.5648 -33.5642 -33.5642 -33.5411 -33.5411 -33.5409 -33.5409
   -12.5271 -12.5271 -12.2145 -12.2145 -11.6888 -11.6888 -11.4475 -11.4475
   -11.0486 -11.0486 -10.8615 -10.8615 -10.8608 -10.8608 -10.8551 -10.8551
    -0.2624  -0.2624  -0.1966  -0.1966   1.2141   1.2141   1.2581   1.2581
     1.7005   1.7005   1.8013   1.8013   1.9526   1.9526   2.2643   2.2643
     2.3974   2.3974   2.5101   2.5101   2.5794   2.5794   3.0027   3.0027
     3.4890   3.4890   3.6608   3.6608   3.9000   3.9000   4.0331   4.0331
     4.5267   4.5267   4.6392   4.6392   4.6925   4.6925   4.8153   4.8153
     5.0046   5.0046   5.0558   5.0558   5.1328   5.1328   5.3436   5.3436
    12.5669  12.5669  13.2883  13.2883  13.6204  13.6204  13.9147  13.9147
    14.2481  14.2481  14.8654  14.8654  15.2021  15.2021  15.8454  15.8454
    16.6595  16.6595  16.7984

          k =-0.4957 0.0000-0.3936 ( 15436 PWs)   bands (ev):

   -66.8896 -66.8896 -66.8896 -66.8896 -66.8205 -66.8205 -66.8205 -66.8205
   -33.6544 -33.6544 -33.6543 -33.6543 -33.6445 -33.6445 -33.6440 -33.6440
   -33.6226 -33.6226 -33.6222 -33.6222 -33.5944 -33.5944 -33.5940 -33.5940
   -33.5645 -33.5645 -33.5644 -33.5644 -33.5410 -33.5410 -33.5409 -33.5409
   -12.3797 -12.3797 -12.3257 -12.3257 -11.5808 -11.5808 -11.5805 -11.5805
   -11.0448 -11.0448 -10.9585 -10.9585 -10.8361 -10.8361 -10.8329 -10.8329
    -0.1166  -0.1166  -0.0206  -0.0206   1.4374   1.4374   1.6488   1.6488
     1.7463   1.7463   1.8558   1.8558   1.9416   1.9416   2.2448   2.2448
     2.3000   2.3000   2.3146   2.3146   2.7855   2.7855   2.8295   2.8295
     3.0086   3.0086   3.4016   3.4016   3.8939   3.8939   3.9515   3.9515
     4.2389   4.2389   4.5756   4.5756   4.6871   4.6871   4.8198   4.8198
     4.9882   4.9882   5.0008   5.0008   5.1767   5.1767   5.2084   5.2084
    13.4021  13.4021  13.4962  13.4962  14.0797  14.0797  14.1300  14.1300
    14.7779  14.7779  15.0264  15.0264  15.3728  15.3728  15.4510  15.4510
    16.2477  16.2477  16.3673

 ------ SPIN DOWN ----------


          k = 0.0000 0.0000 0.0000 ( 15339 PWs)   bands (ev):

   -66.8908 -66.8907 -66.8884 -66.8883 -66.8205 -66.8205 -66.8204 -66.8204
   -33.6744 -33.6741 -33.6465 -33.6459 -33.6423 -33.6421 -33.6343 -33.6343
   -33.6261 -33.6256 -33.6187 -33.6186 -33.5955 -33.5947 -33.5933 -33.5930
   -33.5651 -33.5647 -33.5641 -33.5640 -33.5428 -33.5424 -33.5394 -33.5392
   -12.9663 -12.7446 -12.4627 -12.3241 -11.3322 -11.2828 -11.1867 -11.1486
   -11.1447 -10.9983 -10.9619 -10.9339 -10.8603 -10.8369 -10.7913 -10.7307
    -0.4665  -0.4111   0.0347   0.1158   0.3016   0.4521   1.0020   1.0381
     1.1834   1.5356   1.5642   1.6931   1.9127   2.2682   2.3868   2.5465
     2.7463   3.0197   3.1124   3.1289   3.1385   3.1807   3.2288   3.3419
     3.4753   3.5794   3.7346   3.7572   3.7727   4.0242   4.0245   4.0533
     4.0678   4.3290   4.3674   4.3956   4.4240   4.4826   4.6794   4.7233
     4.7357   4.8912   4.9088   4.9708   5.0619   5.0823   5.2001   5.5601
    10.2342  12.1777  12.5783  13.9122  14.1346  14.1856  14.3230  14.3934
    14.6048  14.8321  14.9081  15.0566  15.2689  15.5906  15.9283  15.9847
    16.1014  16.4768  16.5679

          k = 0.0000 0.0000-0.3936 ( 15392 PWs)   bands (ev):

   -66.8896 -66.8896 -66.8896 -66.8896 -66.8204 -66.8204 -66.8204 -66.8204
   -33.6545 -33.6545 -33.6543 -33.6543 -33.6443 -33.6443 -33.6441 -33.6441
   -33.6224 -33.6224 -33.6222 -33.6222 -33.5942 -33.5942 -33.5940 -33.5940
   -33.5646 -33.5646 -33.5643 -33.5643 -33.5411 -33.5411 -33.5410 -33.5410
   -12.6731 -12.6731 -12.5791 -12.5791 -11.2448 -11.2448 -11.2365 -11.2365
   -11.1404 -11.1404 -10.9211 -10.9211 -10.8410 -10.8410 -10.7463 -10.7463
    -0.1290  -0.1290  -0.1182  -0.1182   0.8371   0.8371   0.8876   0.8876
     1.4737   1.4737   1.8829   1.8829   2.1515   2.1515   2.4691   2.4691
     2.7270   2.7270   2.8776   2.8776   3.2041   3.2041   3.3200   3.3200
     3.3380   3.3380   3.5144   3.5144   3.8064   3.8064   3.8831   3.8831
     4.1831   4.1831   4.3222   4.3222   4.4211   4.4211   4.5692   4.5692
     4.7837   4.7837   4.7953   4.7953   5.0857   5.0857   5.2005   5.2005
    12.0528  12.0528  13.1741  13.1741  13.6626  13.6626  14.7801  14.7801
    15.0250  15.0250  15.8386  15.8386  16.0093  16.0093  16.1004  16.1004
    16.1671  16.1671  16.5572

          k =-0.4957 0.0000 0.0000 ( 15374 PWs)   bands (ev):

   -66.8908 -66.8908 -66.8883 -66.8883 -66.8204 -66.8204 -66.8204 -66.8204
   -33.6742 -33.6742 -33.6463 -33.6463 -33.6422 -33.6422 -33.6343 -33.6343
   -33.6260 -33.6260 -33.6187 -33.6187 -33.5944 -33.5944 -33.5940 -33.5940
   -33.5648 -33.5648 -33.5642 -33.5642 -33.5411 -33.5411 -33.5409 -33.5409
   -12.5271 -12.5271 -12.2145 -12.2145 -11.6888 -11.6888 -11.4475 -11.4475
   -11.0486 -11.0486 -10.8615 -10.8615 -10.8608 -10.8608 -10.8551 -10.8551
    -0.2624  -0.2624  -0.1966  -0.1966   1.2141   1.2141   1.2581   1.2581
     1.7005   1.7005   1.8013   1.8013   1.9526   1.9526   2.2643   2.2643
     2.3974   2.3974   2.5101   2.5101   2.5794   2.5794   3.0027   3.0027
     3.4890   3.4890   3.6608   3.6608   3.9000   3.9000   4.0331   4.0331
     4.5267   4.5267   4.6392   4.6392   4.6925   4.6925   4.8153   4.8153
     5.0046   5.0046   5.0558   5.0558   5.1328   5.1328   5.3436   5.3436
    12.5669  12.5669  13.2883  13.2883  13.6204  13.6204  13.9147  13.9147
    14.2481  14.2481  14.8654  14.8654  15.2021  15.2021  15.8454  15.8454
    16.6595  16.6595  16.7984

          k =-0.4957 0.0000-0.3936 ( 15436 PWs)   bands (ev):

   -66.8896 -66.8896 -66.8896 -66.8896 -66.8205 -66.8205 -66.8205 -66.8205
   -33.6544 -33.6544 -33.6543 -33.6543 -33.6445 -33.6445 -33.6440 -33.6440
   -33.6226 -33.6226 -33.6222 -33.6222 -33.5944 -33.5944 -33.5940 -33.5940
   -33.5645 -33.5645 -33.5644 -33.5644 -33.5410 -33.5410 -33.5409 -33.5409
   -12.3797 -12.3797 -12.3257 -12.3257 -11.5808 -11.5808 -11.5805 -11.5805
   -11.0448 -11.0448 -10.9585 -10.9585 -10.8361 -10.8361 -10.8329 -10.8329
    -0.1166  -0.1166  -0.0206  -0.0206   1.4374   1.4374   1.6488   1.6488
     1.7463   1.7463   1.8558   1.8558   1.9416   1.9416   2.2448   2.2448
     2.3000   2.3000   2.3146   2.3146   2.7855   2.7855   2.8295   2.8295
     3.0086   3.0086   3.4016   3.4016   3.8939   3.8939   3.9515   3.9515
     4.2389   4.2389   4.5756   4.5756   4.6871   4.6871   4.8198   4.8198
     4.9882   4.9882   5.0008   5.0008   5.1767   5.1767   5.2084   5.2084
    13.4021  13.4021  13.4962  13.4962  14.0797  14.0797  14.1300  14.1300
    14.7779  14.7779  15.0264  15.0264  15.3727  15.3728  15.4510  15.4510
    16.2477  16.2477  16.3673

     the Fermi energy is     6.5413 ev

!    total energy              =   -1988.20745413 Ry

     total all-electron energy =     -7937.303307 Ry
     estimated scf accuracy    <          6.9E-10 Ry
     smearing contrib. (-TS)   =      -0.00000000 Ry
     internal energy E=F+TS    =   -1988.20745413 Ry

     The total energy is F=E-TS. E is the sum of the following terms:
     one-electron contribution =    -929.89853972 Ry
     hartree contribution      =     540.45474757 Ry
     xc contribution           =    -288.09539906 Ry
     ewald contribution        =    -895.46152464 Ry
     one-center paw contrib.   =    -415.20673828 Ry

     total magnetization       =    -0.00 Bohr mag/cell
     absolute magnetization    =     0.00 Bohr mag/cell

     convergence has been achieved in  10 iterations

     Forces acting on atoms (cartesian axes, Ry/au):

     atom    1 type  1   force =     0.00000000    0.00000000    0.00000000
     atom    2 type  1   force =    -0.00000000    0.00000000   -0.00000000
     atom    3 type  1   force =     0.00000000    0.00000000    0.00000000
     atom    4 type  1   force =     0.00000000    0.00000000    0.00000000
     atom    5 type  1   force =    -0.00010155    0.00000345    0.00000000
     atom    6 type  1   force =     0.00010155   -0.00000345    0.00000000
     atom    7 type  1   force =    -0.00010155   -0.00000345    0.00000000
     atom    8 type  1   force =     0.00010155    0.00000345    0.00000000
     atom    9 type  2   force =     0.00001677    0.00012122    0.00000000
     atom   10 type  2   force =    -0.00001677   -0.00012122    0.00000000
     atom   11 type  2   force =     0.00001677   -0.00012122   -0.00000000
     atom   12 type  2   force =    -0.00001677    0.00012122   -0.00000000
     atom   13 type  3   force =    -0.00004850    0.00008064    0.00000000
     atom   14 type  3   force =     0.00004850   -0.00008064   -0.00000000
     atom   15 type  3   force =    -0.00004850   -0.00008064    0.00000000
     atom   16 type  3   force =     0.00004850    0.00008064    0.00000000
     atom   17 type  3   force =    -0.00007984    0.00011682    0.00000000
     atom   18 type  3   force =     0.00007984   -0.00011682    0.00000000
     atom   19 type  3   force =    -0.00007984   -0.00011682   -0.00000000
     atom   20 type  3   force =     0.00007984    0.00011682   -0.00000000
     atom   21 type  3   force =    -0.00002598    0.00000495   -0.00006625
     atom   22 type  3   force =     0.00002598   -0.00000495    0.00006625
     atom   23 type  3   force =    -0.00002598   -0.00000495    0.00006625
     atom   24 type  3   force =     0.00002598    0.00000495   -0.00006625
     atom   25 type  3   force =     0.00002598   -0.00000495   -0.00006625
     atom   26 type  3   force =    -0.00002598    0.00000495    0.00006625
     atom   27 type  3   force =     0.00002598    0.00000495    0.00006625
     atom   28 type  3   force =    -0.00002598   -0.00000495   -0.00006625

     Total force =     0.000507     Total SCF correction =     0.000027


     Computing stress (Cartesian axis) and pressure

          total   stress  (Ry/bohr**3)                   (kbar)     P=       -0.08
  -0.00000082   0.00000000   0.00000000           -0.12        0.00        0.00
   0.00000000  -0.00000004   0.00000000            0.00       -0.01        0.00
   0.00000000   0.00000000  -0.00000068            0.00        0.00       -0.10

     Energy error            =      7.2E-07
     Gradient error          =      1.2E-04
     Cell gradient error     =      8.2E-07


     number of scf cycles    =  20
     number of bfgs steps    =  19

     enthalpy old            =   -1988.2074534055 Ry
     enthalpy new            =   -1988.2074541252 Ry

     CASE: enthalpy_new < enthalpy_old

     new trust radius        =       0.0004938452 bohr
     new conv_thr            =       0.0000000010 Ry

     new unit-cell volume =   2014.50495 a.u.^3 (   298.51883 Ang^3 )
     density =      3.13043 g/cm^3

CELL_PARAMETERS (angstrom)
   4.795094034   0.000000000   0.000000000
   0.000000000  10.307154313   0.000000000
   0.000000000   0.000000000   6.039984593

ATOMIC_POSITIONS (angstrom)
Mg           -0.0000000000        0.0000000000        0.0000000000
Mg            2.3975470168        5.1535771565        0.0000000000
Mg            0.0000000000        0.0000000000        3.0199922963
Mg            2.3975470168        5.1535771565        3.0199922963
Mg            0.0403291114        2.8576554639        4.5299884444
Mg            4.7547649221        7.4494988492        1.5099961481
Mg            2.4378761282        2.2959216926        1.5099961481
Mg            2.3572179054        8.0112326204        4.5299884444
Si            0.3548120360        4.1876008179        1.5099961481
Si            4.4402819976        6.1195534952        4.5299884444
Si            2.7523590528        0.9659763387        4.5299884444
Si            2.0427349808        9.3411779744        1.5099961481
O             1.1204339760        0.9455534461        4.5299884444
O             3.6746600575        9.3616008669        1.5099961481
O             3.5179809928        4.2080237104        1.5099961481
O             1.2771130407        6.0991306026        4.5299884444
O             1.3319241203        0.5494134170        1.5099961481
O             3.4631699132        9.7577408961        4.5299884444
O             3.7294711371        4.6041637396        4.5299884444
O             1.0656228964        5.7029905735        1.5099961481
O             1.0697911818        3.4742573651        2.8222864669
O             3.7253028518        6.8328969479        3.2176981257
O             3.4673381986        1.6793197914        3.2176981257
O             1.3277558350        8.6278345217        2.8222864669
O             3.7253028518        6.8328969479        5.8422787631
O             1.0697911818        3.4742573651        0.1977058294
O             1.3277558350        8.6278345217        0.1977058294
O             3.4673381986        1.6793197914        5.8422787631



     Writing output data file ./out/oliv.save/
     NEW-OLD atomic charge density approx. for the potential

     Check: negative core charge=   -0.000009
     extrapolated charge  191.99643, renormalised to  192.00000
     Generating pointlists ...

     total cpu time spent up to now is    10990.1 secs

     Self-consistent Calculation

     iteration #  1     ecut=    60.00 Ry     beta= 0.30
     Davidson diagonalization with overlap
     ethr =  1.00E-06,  avg # of iterations =  2.0

     Threshold (ethr) on eigenvalues was too large:
     Diagonalizing with lowered threshold

     Davidson diagonalization with overlap
     ethr =  6.20E-10,  avg # of iterations =  8.0

     total cpu time spent up to now is    11079.8 secs

     total energy              =   -1988.20745428 Ry
     estimated scf accuracy    <       0.00000042 Ry

     total magnetization       =     0.00 Bohr mag/cell
     absolute magnetization    =     0.00 Bohr mag/cell

     iteration #  2     ecut=    60.00 Ry     beta= 0.30
     Davidson diagonalization with overlap
     ethr =  2.16E-10,  avg # of iterations =  3.5

     total cpu time spent up to now is    11119.1 secs

     total energy              =   -1988.20745452 Ry
     estimated scf accuracy    <       0.00000012 Ry

     total magnetization       =    -0.00 Bohr mag/cell
     absolute magnetization    =     0.00 Bohr mag/cell

     iteration #  3     ecut=    60.00 Ry     beta= 0.30
     Davidson diagonalization with overlap
     ethr =  6.34E-11,  avg # of iterations =  5.6

     total cpu time spent up to now is    11150.2 secs

     total energy              =   -1988.20745452 Ry
     estimated scf accuracy    <       0.00000007 Ry

     total magnetization       =    -0.00 Bohr mag/cell
     absolute magnetization    =     0.00 Bohr mag/cell

     iteration #  4     ecut=    60.00 Ry     beta= 0.30
     Davidson diagonalization with overlap
     ethr =  3.44E-11,  avg # of iterations =  4.2

     total cpu time spent up to now is    11186.4 secs

     total energy              =   -1988.20745455 Ry
     estimated scf accuracy    <       0.00000001 Ry

     total magnetization       =    -0.00 Bohr mag/cell
     absolute magnetization    =     0.00 Bohr mag/cell

     iteration #  5     ecut=    60.00 Ry     beta= 0.30
     Davidson diagonalization with overlap
     ethr =  6.33E-12,  avg # of iterations =  4.2

     total cpu time spent up to now is    11217.1 secs

     total energy              =   -1988.20745454 Ry
     estimated scf accuracy    <          9.5E-09 Ry

     total magnetization       =    -0.00 Bohr mag/cell
     absolute magnetization    =     0.00 Bohr mag/cell

     iteration #  6     ecut=    60.00 Ry     beta= 0.30
     Davidson diagonalization with overlap
     ethr =  4.95E-12,  avg # of iterations =  5.6

     total cpu time spent up to now is    11255.9 secs

     total energy              =   -1988.20745455 Ry
     estimated scf accuracy    <          5.0E-09 Ry

     total magnetization       =    -0.00 Bohr mag/cell
     absolute magnetization    =     0.00 Bohr mag/cell

     iteration #  7     ecut=    60.00 Ry     beta= 0.30
     Davidson diagonalization with overlap
     ethr =  2.60E-12,  avg # of iterations =  1.6

     total cpu time spent up to now is    11278.9 secs

     total energy              =   -1988.20745455 Ry
     estimated scf accuracy    <          2.6E-09 Ry

     total magnetization       =     0.00 Bohr mag/cell
     absolute magnetization    =     0.00 Bohr mag/cell

     iteration #  8     ecut=    60.00 Ry     beta= 0.30
     Davidson diagonalization with overlap
     ethr =  1.34E-12,  avg # of iterations =  3.6

     Magnetic moment per site:
     atom:    1    charge:    8.1130    magn:   -0.0000    constr:    0.0000
     atom:    2    charge:    8.1130    magn:   -0.0000    constr:    0.0000
     atom:    3    charge:    8.1130    magn:   -0.0000    constr:    0.0000
     atom:    4    charge:    8.1130    magn:   -0.0000    constr:    0.0000
     atom:    5    charge:    8.0870    magn:   -0.0000    constr:    0.0000
     atom:    6    charge:    8.0870    magn:   -0.0000    constr:    0.0000
     atom:    7    charge:    8.0870    magn:   -0.0000    constr:    0.0000
     atom:    8    charge:    8.0870    magn:   -0.0000    constr:    0.0000
     atom:    9    charge:    0.3888    magn:   -0.0000    constr:    0.0000
     atom:   10    charge:    0.3888    magn:   -0.0000    constr:    0.0000
     atom:   11    charge:    0.3888    magn:   -0.0000    constr:    0.0000
     atom:   12    charge:    0.3888    magn:   -0.0000    constr:    0.0000
     atom:   13    charge:    4.0574    magn:    0.0000    constr:    0.0000
     atom:   14    charge:    4.0574    magn:    0.0000    constr:    0.0000
     atom:   15    charge:    4.0574    magn:    0.0000    constr:    0.0000
     atom:   16    charge:    4.0574    magn:    0.0000    constr:    0.0000
     atom:   17    charge:    4.0552    magn:    0.0000    constr:    0.0000
     atom:   18    charge:    4.0552    magn:    0.0000    constr:    0.0000
     atom:   19    charge:    4.0552    magn:    0.0000    constr:    0.0000
     atom:   20    charge:    4.0552    magn:    0.0000    constr:    0.0000
     atom:   21    charge:    4.0428    magn:    0.0000    constr:    0.0000
     atom:   22    charge:    4.0428    magn:    0.0000    constr:    0.0000
     atom:   23    charge:    4.0428    magn:    0.0000    constr:    0.0000
     atom:   24    charge:    4.0428    magn:    0.0000    constr:    0.0000
     atom:   25    charge:    4.0428    magn:    0.0000    constr:    0.0000
     atom:   26    charge:    4.0428    magn:    0.0000    constr:    0.0000
     atom:   27    charge:    4.0428    magn:    0.0000    constr:    0.0000
     atom:   28    charge:    4.0428    magn:    0.0000    constr:    0.0000

     total cpu time spent up to now is    11306.6 secs

     End of self-consistent calculation

 ------ SPIN UP ------------


          k = 0.0000 0.0000 0.0000 ( 15339 PWs)   bands (ev):

   -66.8905 -66.8905 -66.8881 -66.8881 -66.8204 -66.8203 -66.8203 -66.8203
   -33.6741 -33.6738 -33.6462 -33.6456 -33.6421 -33.6419 -33.6340 -33.6340
   -33.6259 -33.6254 -33.6184 -33.6184 -33.5954 -33.5946 -33.5931 -33.5929
   -33.5650 -33.5646 -33.5640 -33.5639 -33.5427 -33.5423 -33.5392 -33.5391
   -12.9663 -12.7447 -12.4627 -12.3242 -11.3321 -11.2829 -11.1867 -11.1486
   -11.1447 -10.9982 -10.9621 -10.9338 -10.8604 -10.8371 -10.7912 -10.7305
    -0.4662  -0.4110   0.0350   0.1159   0.3016   0.4521   1.0021   1.0382
     1.1834   1.5355   1.5642   1.6932   1.9126   2.2681   2.3868   2.5467
     2.7464   3.0195   3.1126   3.1289   3.1389   3.1808   3.2289   3.3421
     3.4751   3.5796   3.7349   3.7573   3.7729   4.0241   4.0246   4.0536
     4.0678   4.3290   4.3675   4.3958   4.4241   4.4824   4.6794   4.7236
     4.7358   4.8914   4.9090   4.9708   5.0616   5.0822   5.1999   5.5601
    10.2347  12.1780  12.5794  13.9121  14.1351  14.1852  14.3230  14.3934
    14.6056  14.8323  14.9092  15.0572  15.2697  15.5908  15.9287  15.9861
    16.1017  16.4766  16.5683

          k = 0.0000 0.0000-0.3936 ( 15392 PWs)   bands (ev):

   -66.8893 -66.8893 -66.8893 -66.8893 -66.8203 -66.8203 -66.8203 -66.8203
   -33.6542 -33.6542 -33.6540 -33.6540 -33.6441 -33.6441 -33.6439 -33.6439
   -33.6222 -33.6222 -33.6220 -33.6220 -33.5941 -33.5941 -33.5939 -33.5939
   -33.5644 -33.5644 -33.5642 -33.5642 -33.5410 -33.5410 -33.5408 -33.5408
   -12.6732 -12.6732 -12.5792 -12.5792 -11.2448 -11.2448 -11.2365 -11.2365
   -11.1403 -11.1403 -10.9211 -10.9211 -10.8409 -10.8409 -10.7463 -10.7463
    -0.1289  -0.1289  -0.1180  -0.1180   0.8370   0.8370   0.8876   0.8876
     1.4737   1.4737   1.8828   1.8828   2.1515   2.1515   2.4691   2.4691
     2.7270   2.7270   2.8778   2.8778   3.2044   3.2044   3.3201   3.3201
     3.3383   3.3383   3.5144   3.5144   3.8061   3.8061   3.8833   3.8833
     4.1829   4.1829   4.3226   4.3226   4.4213   4.4213   4.5693   4.5693
     4.7837   4.7837   4.7956   4.7956   5.0857   5.0857   5.2005   5.2005
    12.0532  12.0532  13.1749  13.1749  13.6630  13.6630  14.7806  14.7806
    15.0251  15.0251  15.8384  15.8384  16.0101  16.0101  16.1015  16.1015
    16.1676  16.1676  16.5568

          k =-0.4957 0.0000 0.0000 ( 15374 PWs)   bands (ev):

   -66.8905 -66.8905 -66.8881 -66.8881 -66.8203 -66.8203 -66.8203 -66.8203
   -33.6739 -33.6739 -33.6460 -33.6460 -33.6420 -33.6420 -33.6340 -33.6340
   -33.6258 -33.6258 -33.6185 -33.6185 -33.5943 -33.5943 -33.5939 -33.5939
   -33.5646 -33.5646 -33.5640 -33.5640 -33.5409 -33.5409 -33.5408 -33.5408
   -12.5271 -12.5271 -12.2145 -12.2145 -11.6888 -11.6888 -11.4475 -11.4475
   -11.0488 -11.0488 -10.8616 -10.8616 -10.8607 -10.8607 -10.8549 -10.8549
    -0.2624  -0.2624  -0.1965  -0.1965   1.2142   1.2142   1.2580   1.2580
     1.7008   1.7008   1.8016   1.8016   1.9525   1.9525   2.2643   2.2643
     2.3976   2.3976   2.5102   2.5102   2.5794   2.5794   3.0030   3.0030
     3.4890   3.4890   3.6608   3.6608   3.9001   3.9001   4.0331   4.0331
     4.5267   4.5267   4.6392   4.6392   4.6925   4.6925   4.8153   4.8153
     5.0046   5.0046   5.0559   5.0559   5.1330   5.1330   5.3435   5.3435
    12.5676  12.5676  13.2888  13.2888  13.6212  13.6212  13.9146  13.9146
    14.2486  14.2486  14.8660  14.8660  15.2020  15.2020  15.8463  15.8463
    16.6594  16.6594  16.7986

          k =-0.4957 0.0000-0.3936 ( 15436 PWs)   bands (ev):

   -66.8893 -66.8893 -66.8893 -66.8893 -66.8203 -66.8203 -66.8203 -66.8203
   -33.6541 -33.6541 -33.6540 -33.6540 -33.6443 -33.6443 -33.6438 -33.6438
   -33.6224 -33.6224 -33.6220 -33.6220 -33.5943 -33.5943 -33.5939 -33.5939
   -33.5644 -33.5644 -33.5642 -33.5642 -33.5409 -33.5409 -33.5408 -33.5408
   -12.3797 -12.3797 -12.3257 -12.3257 -11.5808 -11.5808 -11.5805 -11.5805
   -11.0450 -11.0450 -10.9585 -10.9585 -10.8361 -10.8361 -10.8328 -10.8328
    -0.1166  -0.1166  -0.0206  -0.0206   1.4376   1.4376   1.6489   1.6489
     1.7461   1.7461   1.8559   1.8559   1.9417   1.9417   2.2450   2.2450
     2.3001   2.3001   2.3147   2.3147   2.7855   2.7855   2.8296   2.8296
     3.0085   3.0085   3.4016   3.4016   3.8941   3.8941   3.9517   3.9517
     4.2388   4.2388   4.5755   4.5755   4.6873   4.6873   4.8199   4.8199
     4.9884   4.9884   5.0011   5.0011   5.1768   5.1768   5.2084   5.2084
    13.4031  13.4031  13.4965  13.4965  14.0795  14.0795  14.1306  14.1306
    14.7785  14.7785  15.0269  15.0269  15.3732  15.3732  15.4518  15.4518
    16.2473  16.2473  16.3678

 ------ SPIN DOWN ----------


          k = 0.0000 0.0000 0.0000 ( 15339 PWs)   bands (ev):

   -66.8905 -66.8905 -66.8881 -66.8881 -66.8204 -66.8203 -66.8203 -66.8203
   -33.6741 -33.6738 -33.6462 -33.6456 -33.6421 -33.6419 -33.6340 -33.6340
   -33.6259 -33.6254 -33.6184 -33.6184 -33.5954 -33.5946 -33.5931 -33.5929
   -33.5650 -33.5646 -33.5640 -33.5639 -33.5427 -33.5423 -33.5392 -33.5391
   -12.9663 -12.7447 -12.4627 -12.3242 -11.3321 -11.2829 -11.1867 -11.1486
   -11.1447 -10.9982 -10.9621 -10.9338 -10.8604 -10.8371 -10.7912 -10.7305
    -0.4662  -0.4110   0.0350   0.1159   0.3016   0.4521   1.0021   1.0382
     1.1834   1.5355   1.5642   1.6932   1.9126   2.2681   2.3868   2.5467
     2.7464   3.0195   3.1126   3.1289   3.1389   3.1808   3.2289   3.3421
     3.4751   3.5796   3.7349   3.7573   3.7729   4.0241   4.0246   4.0536
     4.0678   4.3290   4.3675   4.3958   4.4241   4.4824   4.6794   4.7236
     4.7358   4.8914   4.9090   4.9708   5.0616   5.0822   5.1999   5.5601
    10.2347  12.1780  12.5794  13.9121  14.1351  14.1852  14.3230  14.3934
    14.6056  14.8323  14.9092  15.0572  15.2697  15.5908  15.9287  15.9861
    16.1017  16.4766  16.5683

          k = 0.0000 0.0000-0.3936 ( 15392 PWs)   bands (ev):

   -66.8893 -66.8893 -66.8893 -66.8893 -66.8203 -66.8203 -66.8203 -66.8203
   -33.6542 -33.6542 -33.6540 -33.6540 -33.6441 -33.6441 -33.6439 -33.6439
   -33.6222 -33.6222 -33.6220 -33.6220 -33.5941 -33.5941 -33.5939 -33.5939
   -33.5644 -33.5644 -33.5642 -33.5642 -33.5410 -33.5410 -33.5408 -33.5408
   -12.6732 -12.6732 -12.5792 -12.5792 -11.2448 -11.2448 -11.2365 -11.2365
   -11.1403 -11.1403 -10.9211 -10.9211 -10.8409 -10.8409 -10.7463 -10.7463
    -0.1289  -0.1289  -0.1180  -0.1180   0.8370   0.8370   0.8876   0.8876
     1.4737   1.4737   1.8828   1.8828   2.1515   2.1515   2.4691   2.4691
     2.7270   2.7270   2.8778   2.8778   3.2044   3.2044   3.3201   3.3201
     3.3383   3.3383   3.5144   3.5144   3.8061   3.8061   3.8833   3.8833
     4.1829   4.1829   4.3226   4.3226   4.4213   4.4213   4.5693   4.5693
     4.7837   4.7837   4.7956   4.7956   5.0857   5.0857   5.2005   5.2005
    12.0532  12.0532  13.1749  13.1749  13.6630  13.6630  14.7806  14.7806
    15.0251  15.0251  15.8384  15.8384  16.0101  16.0101  16.1015  16.1015
    16.1676  16.1676  16.5568

          k =-0.4957 0.0000 0.0000 ( 15374 PWs)   bands (ev):

   -66.8905 -66.8905 -66.8881 -66.8881 -66.8203 -66.8203 -66.8203 -66.8203
   -33.6739 -33.6739 -33.6460 -33.6460 -33.6420 -33.6420 -33.6340 -33.6340
   -33.6258 -33.6258 -33.6185 -33.6185 -33.5943 -33.5943 -33.5939 -33.5939
   -33.5646 -33.5646 -33.5640 -33.5640 -33.5409 -33.5409 -33.5408 -33.5408
   -12.5271 -12.5271 -12.2145 -12.2145 -11.6888 -11.6888 -11.4475 -11.4475
   -11.0488 -11.0488 -10.8616 -10.8616 -10.8607 -10.8607 -10.8549 -10.8549
    -0.2624  -0.2624  -0.1965  -0.1965   1.2142   1.2142   1.2580   1.2580
     1.7008   1.7008   1.8016   1.8016   1.9525   1.9525   2.2643   2.2643
     2.3976   2.3976   2.5102   2.5102   2.5794   2.5794   3.0030   3.0030
     3.4890   3.4890   3.6608   3.6608   3.9001   3.9001   4.0331   4.0331
     4.5267   4.5267   4.6392   4.6392   4.6925   4.6925   4.8153   4.8153
     5.0046   5.0046   5.0559   5.0559   5.1330   5.1330   5.3435   5.3435
    12.5676  12.5676  13.2888  13.2888  13.6212  13.6212  13.9146  13.9146
    14.2486  14.2486  14.8660  14.8660  15.2020  15.2020  15.8463  15.8463
    16.6594  16.6594  16.7986

          k =-0.4957 0.0000-0.3936 ( 15436 PWs)   bands (ev):

   -66.8893 -66.8893 -66.8893 -66.8893 -66.8203 -66.8203 -66.8203 -66.8203
   -33.6541 -33.6541 -33.6540 -33.6540 -33.6443 -33.6443 -33.6438 -33.6438
   -33.6224 -33.6224 -33.6220 -33.6220 -33.5943 -33.5943 -33.5939 -33.5939
   -33.5644 -33.5644 -33.5642 -33.5642 -33.5409 -33.5409 -33.5408 -33.5408
   -12.3797 -12.3797 -12.3257 -12.3257 -11.5808 -11.5808 -11.5805 -11.5805
   -11.0450 -11.0450 -10.9585 -10.9585 -10.8361 -10.8361 -10.8328 -10.8328
    -0.1166  -0.1166  -0.0206  -0.0206   1.4376   1.4376   1.6489   1.6489
     1.7461   1.7461   1.8559   1.8559   1.9417   1.9417   2.2450   2.2450
     2.3001   2.3001   2.3147   2.3147   2.7855   2.7855   2.8296   2.8296
     3.0085   3.0085   3.4016   3.4016   3.8941   3.8941   3.9517   3.9517
     4.2388   4.2388   4.5755   4.5755   4.6873   4.6873   4.8199   4.8199
     4.9884   4.9884   5.0011   5.0011   5.1768   5.1768   5.2084   5.2084
    13.4031  13.4031  13.4965  13.4965  14.0795  14.0795  14.1306  14.1306
    14.7785  14.7785  15.0269  15.0269  15.3732  15.3732  15.4518  15.4518
    16.2473  16.2473  16.3678

     the Fermi energy is     6.5415 ev

!    total energy              =   -1988.20745455 Ry

     total all-electron energy =     -7937.303307 Ry
     estimated scf accuracy    <          7.2E-11 Ry
     smearing contrib. (-TS)   =      -0.00000000 Ry
     internal energy E=F+TS    =   -1988.20745455 Ry

     The total energy is F=E-TS. E is the sum of the following terms:
     one-electron contribution =    -929.89452582 Ry
     hartree contribution      =     540.45406325 Ry
     xc contribution           =    -288.09594673 Ry
     ewald contribution        =    -895.46427775 Ry
     one-center paw contrib.   =    -415.20676750 Ry

     total magnetization       =    -0.00 Bohr mag/cell
     absolute magnetization    =     0.00 Bohr mag/cell

     convergence has been achieved in   8 iterations

     Forces acting on atoms (cartesian axes, Ry/au):

     atom    1 type  1   force =     0.00000000    0.00000000   -0.00000000
     atom    2 type  1   force =    -0.00000000    0.00000000   -0.00000000
     atom    3 type  1   force =     0.00000000    0.00000000    0.00000000
     atom    4 type  1   force =     0.00000000    0.00000000    0.00000000
     atom    5 type  1   force =    -0.00005808    0.00003486    0.00000000
     atom    6 type  1   force =     0.00005808   -0.00003486    0.00000000
     atom    7 type  1   force =    -0.00005808   -0.00003486    0.00000000
     atom    8 type  1   force =     0.00005808    0.00003486    0.00000000
     atom    9 type  2   force =    -0.00004617    0.00008933    0.00000000
     atom   10 type  2   force =     0.00004617   -0.00008933    0.00000000
     atom   11 type  2   force =    -0.00004617   -0.00008933   -0.00000000
     atom   12 type  2   force =     0.00004617    0.00008933   -0.00000000
     atom   13 type  3   force =    -0.00006333    0.00004681    0.00000000
     atom   14 type  3   force =     0.00006333   -0.00004681   -0.00000000
     atom   15 type  3   force =    -0.00006333   -0.00004681   -0.00000000
     atom   16 type  3   force =     0.00006333    0.00004681    0.00000000
     atom   17 type  3   force =    -0.00005254    0.00009038   -0.00000000
     atom   18 type  3   force =     0.00005254   -0.00009038    0.00000000
     atom   19 type  3   force =    -0.00005254   -0.00009038    0.00000000
     atom   20 type  3   force =     0.00005254    0.00009038   -0.00000000
     atom   21 type  3   force =     0.00000513    0.00001581   -0.00003046
     atom   22 type  3   force =    -0.00000513   -0.00001581    0.00003046
     atom   23 type  3   force =     0.00000513   -0.00001581    0.00003046
     atom   24 type  3   force =    -0.00000513    0.00001581   -0.00003046
     atom   25 type  3   force =    -0.00000513   -0.00001581   -0.00003046
     atom   26 type  3   force =     0.00000513    0.00001581    0.00003046
     atom   27 type  3   force =    -0.00000513    0.00001581    0.00003046
     atom   28 type  3   force =     0.00000513   -0.00001581   -0.00003046

     Total force =     0.000370     Total SCF correction =     0.000026


     Computing stress (Cartesian axis) and pressure

          total   stress  (Ry/bohr**3)                   (kbar)     P=        0.00
   0.00000033   0.00000000   0.00000000            0.05        0.00        0.00
   0.00000000   0.00000033   0.00000000            0.00        0.05        0.00
   0.00000000   0.00000000  -0.00000057            0.00        0.00       -0.08

     Energy error            =      4.3E-07
     Gradient error          =      9.0E-05
     Cell gradient error     =      5.7E-07


     bfgs converged in  21 scf cycles and  20 bfgs steps
     (criteria: energy <  1.0E-05 Ry, force <  1.0E-04Ry/Bohr, cell <  5.0E-01kbar)

     End of BFGS Geometry Optimization

     Final enthalpy =   -1988.2074545510 Ry

     File ./out/oliv.bfgs deleted, as requested
Begin final coordinates
     new unit-cell volume =   2014.50495 a.u.^3 (   298.51883 Ang^3 )
     density =      3.13043 g/cm^3

CELL_PARAMETERS (angstrom)
   4.795094034   0.000000000   0.000000000
   0.000000000  10.307154313   0.000000000
   0.000000000   0.000000000   6.039984593

ATOMIC_POSITIONS (angstrom)
Mg           -0.0000000000        0.0000000000        0.0000000000
Mg            2.3975470168        5.1535771565        0.0000000000
Mg            0.0000000000        0.0000000000        3.0199922963
Mg            2.3975470168        5.1535771565        3.0199922963
Mg            0.0403291114        2.8576554639        4.5299884444
Mg            4.7547649221        7.4494988492        1.5099961481
Mg            2.4378761282        2.2959216926        1.5099961481
Mg            2.3572179054        8.0112326204        4.5299884444
Si            0.3548120360        4.1876008179        1.5099961481
Si            4.4402819976        6.1195534952        4.5299884444
Si            2.7523590528        0.9659763387        4.5299884444
Si            2.0427349808        9.3411779744        1.5099961481
O             1.1204339760        0.9455534461        4.5299884444
O             3.6746600575        9.3616008669        1.5099961481
O             3.5179809928        4.2080237104        1.5099961481
O             1.2771130407        6.0991306026        4.5299884444
O             1.3319241203        0.5494134170        1.5099961481
O             3.4631699132        9.7577408961        4.5299884444
O             3.7294711371        4.6041637396        4.5299884444
O             1.0656228964        5.7029905735        1.5099961481
O             1.0697911818        3.4742573651        2.8222864669
O             3.7253028518        6.8328969479        3.2176981257
O             3.4673381986        1.6793197914        3.2176981257
O             1.3277558350        8.6278345217        2.8222864669
O             3.7253028518        6.8328969479        5.8422787631
O             1.0697911818        3.4742573651        0.1977058294
O             1.3277558350        8.6278345217        0.1977058294
O             3.4673381986        1.6793197914        5.8422787631
End final coordinates



     Writing output data file ./out/oliv.save/

     Final scf calculation at the relaxed structure.
     The G-vectors are recalculated for the final unit cell
     Results may differ from those at the preceding step.

     Parallelization info
     --------------------
     sticks:   dense  smooth     PW     G-vecs:    dense   smooth      PW
     Min         481     240     66                25551     9029    1330
     Max         482     241     68                25554     9031    1333
     Sum        6737    3373    937               357743   126429   18641



     bravais-lattice index     =            0
     lattice parameter (alat)  =       8.9841  a.u.
     unit-cell volume          =    2014.5049 (a.u.)^3
     number of atoms/cell      =           28
     number of atomic types    =            3
     number of electrons       =       192.00
     number of Kohn-Sham states=          115
     kinetic-energy cutoff     =      60.0000  Ry
     charge density cutoff     =     480.0000  Ry
     scf convergence threshold =      1.0E-09
     mixing beta               =       0.3000
     number of iterations used =            8  plain     mixing
     press convergence thresh. =      5.0E-01
     Exchange-correlation= SLA  PW   PBX  PBC
                           (   1   4   3   4   0   0   0)

     celldm(1)=   8.984136  celldm(2)=   0.000000  celldm(3)=   0.000000
     celldm(4)=   0.000000  celldm(5)=   0.000000  celldm(6)=   0.000000

     crystal axes: (cart. coord. in units of alat)
               a(1) = (   1.008602   0.000000   0.000000 )  
               a(2) = (   0.000000   2.168010   0.000000 )  
               a(3) = (   0.000000   0.000000   1.270452 )  

     reciprocal axes: (cart. coord. in units 2 pi/alat)
               b(1) = (  0.991472  0.000000  0.000000 )  
               b(2) = (  0.000000  0.461252  0.000000 )  
               b(3) = (  0.000000  0.000000  0.787121 )  


     PseudoPot. # 1 for Mg read from file:
     /mnt/c/Users/busta/Code/mqmqa/data/olivine/_dft/pseudo/Mg.pbe-spnl-kjpaw_psl.1.0.0.UPF
     MD5 check sum: fda14e0d92a6a9a5ebed782e5a4b3067
     Pseudo is Projector augmented-wave + core cor, Zval = 10.0
     Generated using &quot;atomic&quot; code by A. Dal Corso  v.6.3
     Shape of augmentation charge: PSQ
     Using radial grid of 1129 points,  4 beta functions with: 
                l(1) =   0
                l(2) =   0
                l(3) =   1
                l(4) =   1
     Q(r) pseudized with 0 coefficients 


     PseudoPot. # 2 for Si read from file:
     /mnt/c/Users/busta/Code/mqmqa/data/olivine/_dft/pseudo/Si.pbe-n-kjpaw_psl.1.0.0.UPF
     MD5 check sum: c39c59da582df4a0d9f10159256ea34e
     Pseudo is Projector augmented-wave + core cor, Zval =  4.0
     Generated using &quot;atomic&quot; code by A. Dal Corso  v.6.3
     Shape of augmentation charge: PSQ
     Using radial grid of 1141 points,  6 beta functions with: 
                l(1) =   0
                l(2) =   0
                l(3) =   1
                l(4) =   1
                l(5) =   2
                l(6) =   2
     Q(r) pseudized with 0 coefficients 


     PseudoPot. # 3 for O  read from file:
     /mnt/c/Users/busta/Code/mqmqa/data/olivine/_dft/pseudo/O.pbe-n-kjpaw_psl.1.0.0.UPF
     MD5 check sum: e99d9cef9b487d1ca56f5b95ecd0fd7a
     Pseudo is Projector augmented-wave + core cor, Zval =  6.0
     Generated using &quot;atomic&quot; code by A. Dal Corso  v.6.3
     Shape of augmentation charge: PSQ
     Using radial grid of 1095 points,  4 beta functions with: 
                l(1) =   0
                l(2) =   0
                l(3) =   1
                l(4) =   1
     Q(r) pseudized with 0 coefficients 


     atomic species   valence    mass     pseudopotential
        Mg            10.00    24.30500     Mg( 1.00)
        Si             4.00    28.08500     Si( 1.00)
        O              6.00    15.99900     O ( 1.00)

     Starting magnetic structure 
     atomic species   magnetization
        Mg          -0.000
        Si          -0.000
        O            0.000

      8 Sym. Ops., with inversion, found ( 6 have fractional translation)



   Cartesian axes

     site n.     atom                  positions (alat units)
         1           Mg  tau(   1) = (  -0.0000000   0.0000000   0.0000000  )
         2           Mg  tau(   2) = (   0.5043008   1.0840051   0.0000000  )
         3           Mg  tau(   3) = (   0.0000000   0.0000000   0.6352262  )
         4           Mg  tau(   4) = (   0.5043008   1.0840051   0.6352262  )
         5           Mg  tau(   5) = (   0.0084828   0.6010802   0.9528393  )
         6           Mg  tau(   6) = (   1.0001188   1.5669301   0.3176131  )
         7           Mg  tau(   7) = (   0.5127837   0.4829249   0.3176131  )
         8           Mg  tau(   8) = (   0.4958180   1.6850853   0.9528393  )
         9           Si  tau(   9) = (   0.0746313   0.8808213   0.3176131  )
        10           Si  tau(  10) = (   0.9339704   1.2871889   0.9528393  )
        11           Si  tau(  11) = (   0.5789321   0.2031838   0.9528393  )
        12           Si  tau(  12) = (   0.4296696   1.9648265   0.3176131  )
        13           O   tau(  13) = (   0.2356725   0.1988880   0.9528393  )
        14           O   tau(  14) = (   0.7729292   1.9691222   0.3176131  )
        15           O   tau(  15) = (   0.7399733   0.8851171   0.3176131  )
        16           O   tau(  16) = (   0.2686284   1.2828931   0.9528393  )
        17           O   tau(  17) = (   0.2801574   0.1155638   0.3176131  )
        18           O   tau(  18) = (   0.7284443   2.0524464   0.9528393  )
        19           O   tau(  19) = (   0.7844582   0.9684413   0.9528393  )
        20           O   tau(  20) = (   0.2241435   1.1995689   0.3176131  )
        21           O   tau(  21) = (   0.2250202   0.7307764   0.5936407  )
        22           O   tau(  22) = (   0.7835814   1.4372338   0.6768117  )
        23           O   tau(  23) = (   0.7293211   0.3532287   0.6768117  )
        24           O   tau(  24) = (   0.2792806   1.8147816   0.5936407  )
        25           O   tau(  25) = (   0.7835814   1.4372338   1.2288668  )
        26           O   tau(  26) = (   0.2250202   0.7307764   0.0415855  )
        27           O   tau(  27) = (   0.2792806   1.8147816   0.0415855  )
        28           O   tau(  28) = (   0.7293211   0.3532287   1.2288668  )

     number of k points=     4  Gaussian smearing, width (Ry)=  0.0100
                       cart. coord. in units 2pi/alat
        k(    1) = (   0.0000000   0.0000000   0.0000000), wk =   0.2500000
        k(    2) = (   0.0000000   0.0000000  -0.3935606), wk =   0.2500000
        k(    3) = (  -0.4957358   0.0000000   0.0000000), wk =   0.2500000
        k(    4) = (  -0.4957358   0.0000000  -0.3935606), wk =   0.2500000

     Dense  grid:   357743 G-vectors     FFT dimensions: (  64, 144,  80)

     Smooth grid:   126429 G-vectors     FFT dimensions: (  48, 100,  60)

     Estimated max dynamical RAM per process >     150.23 MB

     Estimated total dynamical RAM >       2.05 GB

     Check: negative core charge=   -0.000008
     Generating pointlists ...

     Initial potential from superposition of free atoms

     starting charge  191.99035, renormalised to  192.00000
     Starting wfcs are  120 randomized atomic wfcs
     Checking if some PAW data can be deallocated... 

     total cpu time spent up to now is    11348.1 secs

     Self-consistent Calculation

     iteration #  1     ecut=    60.00 Ry     beta= 0.30
     Davidson diagonalization with overlap
     c_bands:  3 eigenvalues not converged
     c_bands:  3 eigenvalues not converged
     c_bands:  1 eigenvalues not converged
     c_bands:  2 eigenvalues not converged
     c_bands:  1 eigenvalues not converged
     c_bands:  1 eigenvalues not converged
     ethr =  1.00E-06,  avg # of iterations = 38.6

     total cpu time spent up to now is    11588.0 secs

     total energy              =   -1987.51676186 Ry
     estimated scf accuracy    <       6.15684200 Ry

     total magnetization       =     0.00 Bohr mag/cell
     absolute magnetization    =     0.00 Bohr mag/cell

     iteration #  2     ecut=    60.00 Ry     beta= 0.30
     Davidson diagonalization with overlap
     ethr =  3.21E-03,  avg # of iterations =  1.0

     total cpu time spent up to now is    11609.3 secs

     total energy              =   -1987.17581721 Ry
     estimated scf accuracy    <       1.30453832 Ry

     total magnetization       =    -0.00 Bohr mag/cell
     absolute magnetization    =     0.01 Bohr mag/cell

     iteration #  3     ecut=    60.00 Ry     beta= 0.30
     Davidson diagonalization with overlap
     ethr =  6.79E-04,  avg # of iterations =  3.8

     total cpu time spent up to now is    11646.6 secs

     total energy              =   -1988.17765177 Ry
     estimated scf accuracy    <       1.23160132 Ry

     total magnetization       =    -0.00 Bohr mag/cell
     absolute magnetization    =     0.01 Bohr mag/cell

     iteration #  4     ecut=    60.00 Ry     beta= 0.30
     Davidson diagonalization with overlap
     ethr =  6.41E-04,  avg # of iterations =  1.2

     total cpu time spent up to now is    11668.7 secs

     total energy              =   -1987.93239426 Ry
     estimated scf accuracy    <       0.44859104 Ry

     total magnetization       =    -0.00 Bohr mag/cell
     absolute magnetization    =     0.01 Bohr mag/cell

     iteration #  5     ecut=    60.00 Ry     beta= 0.30
     Davidson diagonalization with overlap
     ethr =  2.34E-04,  avg # of iterations =  4.9

     total cpu time spent up to now is    11712.1 secs

     total energy              =   -1988.18153720 Ry
     estimated scf accuracy    <       0.66776878 Ry

     total magnetization       =    -0.00 Bohr mag/cell
     absolute magnetization    =     0.01 Bohr mag/cell

     iteration #  6     ecut=    60.00 Ry     beta= 0.30
     Davidson diagonalization with overlap
     ethr =  2.34E-04,  avg # of iterations =  1.0

     total cpu time spent up to now is    11733.4 secs

     total energy              =   -1988.16796837 Ry
     estimated scf accuracy    <       0.20050917 Ry

     total magnetization       =     0.00 Bohr mag/cell
     absolute magnetization    =     0.01 Bohr mag/cell

     iteration #  7     ecut=    60.00 Ry     beta= 0.30
     Davidson diagonalization with overlap
     ethr =  1.04E-04,  avg # of iterations =  2.0

     total cpu time spent up to now is    11771.4 secs

     total energy              =   -1988.20578512 Ry
     estimated scf accuracy    <       0.02257778 Ry

     total magnetization       =     0.00 Bohr mag/cell
     absolute magnetization    =     0.01 Bohr mag/cell

     iteration #  8     ecut=    60.00 Ry     beta= 0.30
     Davidson diagonalization with overlap
     c_bands:  1 eigenvalues not converged
     c_bands:  1 eigenvalues not converged
     ethr =  1.18E-05,  avg # of iterations = 17.2

     total cpu time spent up to now is    11821.1 secs

     total energy              =   -1988.20583121 Ry
     estimated scf accuracy    <       0.00784143 Ry

     total magnetization       =    -0.00 Bohr mag/cell
     absolute magnetization    =     0.00 Bohr mag/cell

     iteration #  9     ecut=    60.00 Ry     beta= 0.30
     Davidson diagonalization with overlap
     ethr =  4.08E-06,  avg # of iterations =  7.6

     total cpu time spent up to now is    11872.5 secs

     total energy              =   -1988.20949713 Ry
     estimated scf accuracy    <       0.00068341 Ry

     total magnetization       =    -0.00 Bohr mag/cell
     absolute magnetization    =     0.01 Bohr mag/cell

     iteration # 10     ecut=    60.00 Ry     beta= 0.30
     Davidson diagonalization with overlap
     c_bands:  1 eigenvalues not converged
     c_bands:  1 eigenvalues not converged
     ethr =  3.56E-07,  avg # of iterations = 10.6

     total cpu time spent up to now is    11918.5 secs

     total energy              =   -1988.21024681 Ry
     estimated scf accuracy    <       0.00053629 Ry

     total magnetization       =     0.00 Bohr mag/cell
     absolute magnetization    =     0.00 Bohr mag/cell

     iteration # 11     ecut=    60.00 Ry     beta= 0.30
     Davidson diagonalization with overlap
     ethr =  2.79E-07,  avg # of iterations =  3.0

     total cpu time spent up to now is    11963.8 secs

     total energy              =   -1988.21097601 Ry
     estimated scf accuracy    <       0.00176021 Ry

     total magnetization       =     0.00 Bohr mag/cell
     absolute magnetization    =     0.00 Bohr mag/cell

     iteration # 12     ecut=    60.00 Ry     beta= 0.30
     Davidson diagonalization with overlap
     ethr =  2.79E-07,  avg # of iterations =  4.5

     total cpu time spent up to now is    12012.1 secs

     total energy              =   -1988.21015429 Ry
     estimated scf accuracy    <       0.00540379 Ry

     total magnetization       =    -0.00 Bohr mag/cell
     absolute magnetization    =     0.00 Bohr mag/cell

     iteration # 13     ecut=    60.00 Ry     beta= 0.30
     Davidson diagonalization with overlap
     ethr =  2.79E-07,  avg # of iterations =  2.0

     total cpu time spent up to now is    12044.2 secs

     total energy              =   -1988.20935063 Ry
     estimated scf accuracy    <       0.00298499 Ry

     total magnetization       =    -0.00 Bohr mag/cell
     absolute magnetization    =     0.00 Bohr mag/cell

     iteration # 14     ecut=    60.00 Ry     beta= 0.30
     Davidson diagonalization with overlap
     ethr =  2.79E-07,  avg # of iterations =  4.0

     total cpu time spent up to now is    12092.8 secs

     total energy              =   -1988.20971767 Ry
     estimated scf accuracy    <       0.00026110 Ry

     total magnetization       =    -0.00 Bohr mag/cell
     absolute magnetization    =     0.00 Bohr mag/cell

     iteration # 15     ecut=    60.00 Ry     beta= 0.30
     Davidson diagonalization with overlap
     ethr =  1.36E-07,  avg # of iterations =  1.8

     total cpu time spent up to now is    12118.8 secs

     total energy              =   -1988.20961844 Ry
     estimated scf accuracy    <       0.00018456 Ry

     total magnetization       =    -0.00 Bohr mag/cell
     absolute magnetization    =     0.00 Bohr mag/cell

     iteration # 16     ecut=    60.00 Ry     beta= 0.30
     Davidson diagonalization with overlap
     ethr =  9.61E-08,  avg # of iterations =  5.9

     total cpu time spent up to now is    12158.2 secs

     total energy              =   -1988.20968229 Ry
     estimated scf accuracy    <       0.00001871 Ry

     total magnetization       =    -0.00 Bohr mag/cell
     absolute magnetization    =     0.00 Bohr mag/cell

     iteration # 17     ecut=    60.00 Ry     beta= 0.30
     Davidson diagonalization with overlap
     ethr =  9.75E-09,  avg # of iterations =  4.2

     total cpu time spent up to now is    12196.7 secs

     total energy              =   -1988.20969100 Ry
     estimated scf accuracy    <       0.00000017 Ry

     total magnetization       =    -0.00 Bohr mag/cell
     absolute magnetization    =     0.00 Bohr mag/cell

     iteration # 18     ecut=    60.00 Ry     beta= 0.30
     Davidson diagonalization with overlap
     ethr =  8.86E-11,  avg # of iterations = 10.6

     total cpu time spent up to now is    12266.5 secs

     total energy              =   -1988.20969165 Ry
     estimated scf accuracy    <       0.00000009 Ry

     total magnetization       =    -0.00 Bohr mag/cell
     absolute magnetization    =     0.00 Bohr mag/cell

     iteration # 19     ecut=    60.00 Ry     beta= 0.30
     Davidson diagonalization with overlap
     ethr =  4.60E-11,  avg # of iterations =  2.8

     total cpu time spent up to now is    12298.2 secs

     total energy              =   -1988.20969166 Ry
     estimated scf accuracy    <       0.00000007 Ry

     total magnetization       =     0.00 Bohr mag/cell
     absolute magnetization    =     0.00 Bohr mag/cell

     iteration # 20     ecut=    60.00 Ry     beta= 0.30
     Davidson diagonalization with overlap
     ethr =  3.52E-11,  avg # of iterations =  4.4

     total cpu time spent up to now is    12360.8 secs

     total energy              =   -1988.20969176 Ry
     estimated scf accuracy    <       0.00000022 Ry

     total magnetization       =    -0.00 Bohr mag/cell
     absolute magnetization    =     0.00 Bohr mag/cell

     iteration # 21     ecut=    60.00 Ry     beta= 0.30
     Davidson diagonalization with overlap
     ethr =  3.52E-11,  avg # of iterations =  2.0

     total cpu time spent up to now is    12394.5 secs

     total energy              =   -1988.20969167 Ry
     estimated scf accuracy    <       0.00000026 Ry

     total magnetization       =     0.00 Bohr mag/cell
     absolute magnetization    =     0.00 Bohr mag/cell

     iteration # 22     ecut=    60.00 Ry     beta= 0.30
     Davidson diagonalization with overlap
     ethr =  3.52E-11,  avg # of iterations =  3.9

     total cpu time spent up to now is    12430.9 secs

     total energy              =   -1988.20969166 Ry
     estimated scf accuracy    <       0.00000006 Ry

     total magnetization       =     0.00 Bohr mag/cell
     absolute magnetization    =     0.00 Bohr mag/cell

     iteration # 23     ecut=    60.00 Ry     beta= 0.30
     Davidson diagonalization with overlap
     ethr =  2.94E-11,  avg # of iterations =  4.0

     total cpu time spent up to now is    12482.8 secs

     total energy              =   -1988.20969169 Ry
     estimated scf accuracy    <       0.00000002 Ry

     total magnetization       =     0.00 Bohr mag/cell
     absolute magnetization    =     0.00 Bohr mag/cell

     iteration # 24     ecut=    60.00 Ry     beta= 0.30
     Davidson diagonalization with overlap
     ethr =  1.15E-11,  avg # of iterations =  1.6

     total cpu time spent up to now is    12510.8 secs

     total energy              =   -1988.20969169 Ry
     estimated scf accuracy    <          7.9E-09 Ry

     total magnetization       =     0.00 Bohr mag/cell
     absolute magnetization    =     0.00 Bohr mag/cell

     iteration # 25     ecut=    60.00 Ry     beta= 0.30
     Davidson diagonalization with overlap
     ethr =  4.13E-12,  avg # of iterations =  4.0

     total cpu time spent up to now is    12555.4 secs

     total energy              =   -1988.20969169 Ry
     estimated scf accuracy    <          1.2E-09 Ry

     total magnetization       =     0.00 Bohr mag/cell
     absolute magnetization    =     0.00 Bohr mag/cell

     iteration # 26     ecut=    60.00 Ry     beta= 0.30
     Davidson diagonalization with overlap
     ethr =  6.26E-13,  avg # of iterations =  3.8

     Magnetic moment per site:
     atom:    1    charge:    8.1131    magn:    0.0000    constr:    0.0000
     atom:    2    charge:    8.1131    magn:    0.0000    constr:    0.0000
     atom:    3    charge:    8.1131    magn:    0.0000    constr:    0.0000
     atom:    4    charge:    8.1131    magn:    0.0000    constr:    0.0000
     atom:    5    charge:    8.0870    magn:    0.0000    constr:    0.0000
     atom:    6    charge:    8.0870    magn:    0.0000    constr:    0.0000
     atom:    7    charge:    8.0870    magn:    0.0000    constr:    0.0000
     atom:    8    charge:    8.0870    magn:    0.0000    constr:    0.0000
     atom:    9    charge:    0.3888    magn:    0.0000    constr:    0.0000
     atom:   10    charge:    0.3888    magn:    0.0000    constr:    0.0000
     atom:   11    charge:    0.3888    magn:    0.0000    constr:    0.0000
     atom:   12    charge:    0.3888    magn:    0.0000    constr:    0.0000
     atom:   13    charge:    4.0573    magn:   -0.0000    constr:    0.0000
     atom:   14    charge:    4.0573    magn:   -0.0000    constr:    0.0000
     atom:   15    charge:    4.0573    magn:   -0.0000    constr:    0.0000
     atom:   16    charge:    4.0573    magn:   -0.0000    constr:    0.0000
     atom:   17    charge:    4.0551    magn:   -0.0000    constr:    0.0000
     atom:   18    charge:    4.0551    magn:   -0.0000    constr:    0.0000
     atom:   19    charge:    4.0551    magn:   -0.0000    constr:    0.0000
     atom:   20    charge:    4.0551    magn:   -0.0000    constr:    0.0000
     atom:   21    charge:    4.0427    magn:   -0.0000    constr:    0.0000
     atom:   22    charge:    4.0427    magn:   -0.0000    constr:    0.0000
     atom:   23    charge:    4.0427    magn:   -0.0000    constr:    0.0000
     atom:   24    charge:    4.0427    magn:   -0.0000    constr:    0.0000
     atom:   25    charge:    4.0427    magn:   -0.0000    constr:    0.0000
     atom:   26    charge:    4.0427    magn:   -0.0000    constr:    0.0000
     atom:   27    charge:    4.0427    magn:   -0.0000    constr:    0.0000
     atom:   28    charge:    4.0427    magn:   -0.0000    constr:    0.0000

     total cpu time spent up to now is    12584.3 secs

     End of self-consistent calculation

 ------ SPIN UP ------------


          k = 0.0000 0.0000 0.0000 ( 15763 PWs)   bands (ev):

   -66.8920 -66.8920 -66.8896 -66.8896 -66.8219 -66.8219 -66.8218 -66.8218
   -33.6761 -33.6758 -33.6483 -33.6476 -33.6440 -33.6439 -33.6360 -33.6360
   -33.6279 -33.6274 -33.6204 -33.6204 -33.5975 -33.5967 -33.5953 -33.5950
   -33.5671 -33.5667 -33.5660 -33.5660 -33.5448 -33.5444 -33.5413 -33.5412
   -12.9663 -12.7446 -12.4627 -12.3241 -11.3320 -11.2828 -11.1866 -11.1485
   -11.1446 -10.9981 -10.9620 -10.9337 -10.8603 -10.8370 -10.7911 -10.7305
    -0.4662  -0.4110   0.0348   0.1158   0.3016   0.4520   1.0020   1.0381
     1.1834   1.5354   1.5641   1.6931   1.9126   2.2680   2.3867   2.5467
     2.7463   3.0194   3.1124   3.1288   3.1388   3.1806   3.2288   3.3420
     3.4751   3.5796   3.7348   3.7572   3.7727   4.0239   4.0246   4.0535
     4.0677   4.3290   4.3675   4.3956   4.4241   4.4823   4.6793   4.7236
     4.7357   4.8913   4.9090   4.9706   5.0615   5.0821   5.1999   5.5601
    10.2348  12.1780  12.5794  13.9119  14.1350  14.1852  14.3228  14.3934
    14.6056  14.8322  14.9090  15.0569  15.2695  15.5908  15.9286  15.9861
    16.1017  16.4764  16.5681

          k = 0.0000 0.0000-0.3936 ( 15832 PWs)   bands (ev):

   -66.8908 -66.8908 -66.8908 -66.8908 -66.8219 -66.8219 -66.8219 -66.8219
   -33.6563 -33.6563 -33.6560 -33.6560 -33.6461 -33.6461 -33.6458 -33.6458
   -33.6242 -33.6242 -33.6240 -33.6240 -33.5962 -33.5962 -33.5960 -33.5960
   -33.5665 -33.5665 -33.5664 -33.5664 -33.5431 -33.5431 -33.5430 -33.5430
   -12.6732 -12.6732 -12.5792 -12.5792 -11.2447 -11.2447 -11.2364 -11.2364
   -11.1402 -11.1402 -10.9210 -10.9210 -10.8408 -10.8408 -10.7462 -10.7462
    -0.1290  -0.1290  -0.1180  -0.1180   0.8369   0.8369   0.8875   0.8875
     1.4737   1.4737   1.8827   1.8827   2.1514   2.1514   2.4690   2.4690
     2.7270   2.7270   2.8777   2.8777   3.2044   3.2044   3.3200   3.3200
     3.3382   3.3382   3.5143   3.5143   3.8060   3.8060   3.8832   3.8832
     4.1828   4.1828   4.3226   4.3226   4.4212   4.4212   4.5692   4.5692
     4.7836   4.7836   4.7956   4.7956   5.0856   5.0856   5.2004   5.2004
    12.0532  12.0532  13.1749  13.1749  13.6630  13.6630  14.7805  14.7805
    15.0251  15.0251  15.8382  15.8382  16.0100  16.0100  16.1013  16.1013
    16.1675  16.1675  16.5567

          k =-0.4957 0.0000 0.0000 ( 15850 PWs)   bands (ev):

   -66.8920 -66.8920 -66.8896 -66.8896 -66.8219 -66.8219 -66.8219 -66.8219
   -33.6760 -33.6760 -33.6481 -33.6481 -33.6440 -33.6440 -33.6361 -33.6361
   -33.6278 -33.6278 -33.6205 -33.6205 -33.5964 -33.5964 -33.5960 -33.5960
   -33.5668 -33.5668 -33.5661 -33.5661 -33.5431 -33.5431 -33.5429 -33.5429
   -12.5271 -12.5271 -12.2145 -12.2145 -11.6887 -11.6887 -11.4474 -11.4474
   -11.0487 -11.0487 -10.8615 -10.8615 -10.8606 -10.8606 -10.8549 -10.8549
    -0.2625  -0.2625  -0.1966  -0.1966   1.2141   1.2141   1.2579   1.2579
     1.7007   1.7007   1.8015   1.8015   1.9524   1.9524   2.2642   2.2642
     2.3975   2.3975   2.5101   2.5101   2.5793   2.5793   3.0028   3.0028
     3.4889   3.4889   3.6606   3.6606   3.9000   3.9000   4.0330   4.0330
     4.5267   4.5267   4.6391   4.6391   4.6924   4.6924   4.8152   4.8152
     5.0045   5.0045   5.0558   5.0558   5.1329   5.1329   5.3435   5.3435
    12.5675  12.5675  13.2886  13.2886  13.6211  13.6211  13.9145  13.9145
    14.2486  14.2486  14.8660  14.8660  15.2020  15.2020  15.8462  15.8462
    16.6594  16.6594  16.7984

          k =-0.4957 0.0000-0.3936 ( 15784 PWs)   bands (ev):

   -66.8908 -66.8908 -66.8908 -66.8908 -66.8219 -66.8219 -66.8219 -66.8219
   -33.6561 -33.6561 -33.6560 -33.6560 -33.6463 -33.6463 -33.6458 -33.6458
   -33.6244 -33.6244 -33.6239 -33.6239 -33.5963 -33.5963 -33.5960 -33.5960
   -33.5665 -33.5665 -33.5663 -33.5663 -33.5429 -33.5429 -33.5429 -33.5429
   -12.3797 -12.3797 -12.3257 -12.3257 -11.5807 -11.5807 -11.5804 -11.5804
   -11.0449 -11.0449 -10.9584 -10.9584 -10.8360 -10.8360 -10.8327 -10.8327
    -0.1166  -0.1166  -0.0207  -0.0207   1.4375   1.4375   1.6489   1.6489
     1.7461   1.7461   1.8558   1.8558   1.9417   1.9417   2.2450   2.2450
     2.3001   2.3001   2.3146   2.3146   2.7854   2.7854   2.8296   2.8296
     3.0085   3.0085   3.4016   3.4016   3.8940   3.8940   3.9516   3.9516
     4.2388   4.2388   4.5755   4.5755   4.6872   4.6872   4.8199   4.8199
     4.9883   4.9883   5.0011   5.0011   5.1768   5.1768   5.2084   5.2084
    13.4030  13.4030  13.4965  13.4965  14.0795  14.0795  14.1306  14.1306
    14.7785  14.7785  15.0270  15.0270  15.3731  15.3731  15.4517  15.4517
    16.2472  16.3664  16.3678

 ------ SPIN DOWN ----------


          k = 0.0000 0.0000 0.0000 ( 15763 PWs)   bands (ev):

   -66.8920 -66.8920 -66.8896 -66.8896 -66.8219 -66.8219 -66.8218 -66.8218
   -33.6761 -33.6758 -33.6483 -33.6476 -33.6440 -33.6439 -33.6360 -33.6360
   -33.6279 -33.6274 -33.6204 -33.6204 -33.5975 -33.5967 -33.5953 -33.5950
   -33.5671 -33.5667 -33.5660 -33.5660 -33.5448 -33.5444 -33.5413 -33.5412
   -12.9663 -12.7446 -12.4627 -12.3241 -11.3320 -11.2828 -11.1866 -11.1485
   -11.1446 -10.9981 -10.9620 -10.9337 -10.8603 -10.8370 -10.7911 -10.7305
    -0.4662  -0.4110   0.0348   0.1158   0.3016   0.4520   1.0020   1.0381
     1.1834   1.5354   1.5641   1.6931   1.9126   2.2680   2.3867   2.5467
     2.7463   3.0194   3.1124   3.1288   3.1388   3.1806   3.2288   3.3420
     3.4751   3.5796   3.7348   3.7572   3.7727   4.0239   4.0246   4.0535
     4.0677   4.3290   4.3675   4.3956   4.4240   4.4823   4.6793   4.7236
     4.7357   4.8913   4.9090   4.9706   5.0615   5.0821   5.1998   5.5601
    10.2348  12.1780  12.5794  13.9119  14.1350  14.1852  14.3228  14.3934
    14.6056  14.8322  14.9090  15.0569  15.2695  15.5909  15.9286  15.9861
    16.1017  16.4764  16.5681

          k = 0.0000 0.0000-0.3936 ( 15832 PWs)   bands (ev):

   -66.8908 -66.8908 -66.8908 -66.8908 -66.8219 -66.8219 -66.8219 -66.8219
   -33.6563 -33.6563 -33.6560 -33.6560 -33.6461 -33.6461 -33.6458 -33.6458
   -33.6242 -33.6242 -33.6240 -33.6240 -33.5962 -33.5962 -33.5960 -33.5960
   -33.5665 -33.5665 -33.5664 -33.5664 -33.5431 -33.5431 -33.5430 -33.5430
   -12.6732 -12.6732 -12.5792 -12.5792 -11.2448 -11.2448 -11.2364 -11.2364
   -11.1402 -11.1402 -10.9210 -10.9210 -10.8408 -10.8408 -10.7462 -10.7462
    -0.1290  -0.1290  -0.1180  -0.1180   0.8369   0.8369   0.8875   0.8875
     1.4737   1.4737   1.8827   1.8827   2.1514   2.1514   2.4690   2.4690
     2.7270   2.7270   2.8777   2.8777   3.2044   3.2044   3.3200   3.3200
     3.3382   3.3382   3.5143   3.5143   3.8060   3.8060   3.8832   3.8832
     4.1828   4.1828   4.3226   4.3226   4.4212   4.4212   4.5692   4.5692
     4.7836   4.7836   4.7956   4.7956   5.0856   5.0856   5.2004   5.2004
    12.0532  12.0532  13.1749  13.1749  13.6630  13.6630  14.7805  14.7805
    15.0251  15.0251  15.8382  15.8382  16.0100  16.0100  16.1013  16.1013
    16.1675  16.1675  16.5567

          k =-0.4957 0.0000 0.0000 ( 15850 PWs)   bands (ev):

   -66.8920 -66.8920 -66.8896 -66.8896 -66.8219 -66.8219 -66.8219 -66.8219
   -33.6760 -33.6760 -33.6481 -33.6481 -33.6440 -33.6440 -33.6361 -33.6361
   -33.6278 -33.6278 -33.6205 -33.6205 -33.5964 -33.5964 -33.5960 -33.5960
   -33.5668 -33.5668 -33.5661 -33.5661 -33.5431 -33.5431 -33.5429 -33.5429
   -12.5271 -12.5271 -12.2145 -12.2145 -11.6887 -11.6887 -11.4474 -11.4474
   -11.0487 -11.0487 -10.8615 -10.8615 -10.8606 -10.8606 -10.8549 -10.8549
    -0.2625  -0.2625  -0.1966  -0.1966   1.2141   1.2141   1.2579   1.2579
     1.7007   1.7007   1.8015   1.8015   1.9524   1.9524   2.2642   2.2642
     2.3975   2.3975   2.5101   2.5101   2.5793   2.5793   3.0028   3.0028
     3.4889   3.4889   3.6606   3.6606   3.9000   3.9000   4.0330   4.0330
     4.5267   4.5267   4.6391   4.6391   4.6924   4.6924   4.8152   4.8152
     5.0045   5.0045   5.0558   5.0558   5.1329   5.1329   5.3435   5.3435
    12.5675  12.5675  13.2886  13.2886  13.6211  13.6211  13.9145  13.9145
    14.2486  14.2486  14.8660  14.8660  15.2020  15.2020  15.8462  15.8462
    16.6594  16.6595  16.7984

          k =-0.4957 0.0000-0.3936 ( 15784 PWs)   bands (ev):

   -66.8908 -66.8908 -66.8908 -66.8908 -66.8219 -66.8219 -66.8219 -66.8219
   -33.6561 -33.6561 -33.6560 -33.6560 -33.6463 -33.6463 -33.6458 -33.6458
   -33.6244 -33.6244 -33.6239 -33.6239 -33.5963 -33.5963 -33.5960 -33.5960
   -33.5665 -33.5665 -33.5663 -33.5663 -33.5429 -33.5429 -33.5429 -33.5429
   -12.3797 -12.3797 -12.3257 -12.3257 -11.5807 -11.5807 -11.5804 -11.5804
   -11.0449 -11.0449 -10.9584 -10.9584 -10.8360 -10.8360 -10.8327 -10.8327
    -0.1166  -0.1166  -0.0207  -0.0207   1.4375   1.4375   1.6489   1.6489
     1.7461   1.7461   1.8558   1.8558   1.9417   1.9417   2.2450   2.2450
     2.3001   2.3001   2.3146   2.3146   2.7854   2.7854   2.8296   2.8296
     3.0084   3.0084   3.4015   3.4015   3.8940   3.8940   3.9516   3.9516
     4.2388   4.2388   4.5755   4.5755   4.6872   4.6872   4.8199   4.8199
     4.9883   4.9883   5.0011   5.0011   5.1768   5.1768   5.2084   5.2084
    13.4030  13.4030  13.4965  13.4965  14.0795  14.0795  14.1306  14.1306
    14.7785  14.7785  15.0270  15.0270  15.3731  15.3731  15.4517  15.4517
    16.2472  16.3671  16.3678

     the Fermi energy is     6.5412 ev

!    total energy              =   -1988.20969169 Ry

     total all-electron energy =     -7937.305544 Ry
     estimated scf accuracy    <          5.0E-10 Ry
     smearing contrib. (-TS)   =      -0.00000000 Ry
     internal energy E=F+TS    =   -1988.20969169 Ry

     The total energy is F=E-TS. E is the sum of the following terms:
     one-electron contribution =    -929.89156659 Ry
     hartree contribution      =     540.44639078 Ry
     xc contribution           =    -288.09440938 Ry
     ewald contribution        =    -895.46427775 Ry
     one-center paw contrib.   =    -415.20582876 Ry

     total magnetization       =    -0.00 Bohr mag/cell
     absolute magnetization    =     0.00 Bohr mag/cell

     convergence has been achieved in  26 iterations

     Forces acting on atoms (cartesian axes, Ry/au):

     atom    1 type  1   force =     0.00000000    0.00000000   -0.00000000
     atom    2 type  1   force =     0.00000000    0.00000000   -0.00000000
     atom    3 type  1   force =     0.00000000    0.00000000    0.00000000
     atom    4 type  1   force =     0.00000000    0.00000000    0.00000000
     atom    5 type  1   force =    -0.00005289    0.00006146    0.00000000
     atom    6 type  1   force =     0.00005289   -0.00006146    0.00000000
     atom    7 type  1   force =    -0.00005289   -0.00006146    0.00000000
     atom    8 type  1   force =     0.00005289    0.00006146    0.00000000
     atom    9 type  2   force =    -0.00004810    0.00008861    0.00000000
     atom   10 type  2   force =     0.00004810   -0.00008861    0.00000000
     atom   11 type  2   force =    -0.00004810   -0.00008861    0.00000000
     atom   12 type  2   force =     0.00004810    0.00008861   -0.00000000
     atom   13 type  3   force =    -0.00009441    0.00002572    0.00000000
     atom   14 type  3   force =     0.00009441   -0.00002572   -0.00000000
     atom   15 type  3   force =    -0.00009441   -0.00002572    0.00000000
     atom   16 type  3   force =     0.00009441    0.00002572    0.00000000
     atom   17 type  3   force =    -0.00006447    0.00010572    0.00000000
     atom   18 type  3   force =     0.00006447   -0.00010572    0.00000000
     atom   19 type  3   force =    -0.00006447   -0.00010572    0.00000000
     atom   20 type  3   force =     0.00006447    0.00010572    0.00000000
     atom   21 type  3   force =     0.00001140    0.00002136   -0.00000478
     atom   22 type  3   force =    -0.00001140   -0.00002136    0.00000478
     atom   23 type  3   force =     0.00001140   -0.00002136    0.00000478
     atom   24 type  3   force =    -0.00001140    0.00002136   -0.00000478
     atom   25 type  3   force =    -0.00001140   -0.00002136   -0.00000478
     atom   26 type  3   force =     0.00001140    0.00002136    0.00000478
     atom   27 type  3   force =    -0.00001140    0.00002136    0.00000478
     atom   28 type  3   force =     0.00001140   -0.00002136   -0.00000478

     Total force =     0.000414     Total SCF correction =     0.000030


     Computing stress (Cartesian axis) and pressure

          total   stress  (Ry/bohr**3)                   (kbar)     P=       -0.64
  -0.00000399   0.00000000   0.00000000           -0.59        0.00        0.00
   0.00000000  -0.00000398   0.00000000            0.00       -0.59        0.00
   0.00000000   0.00000000  -0.00000506            0.00        0.00       -0.74


     Writing output data file ./out/oliv.save/

     init_run     :     24.36s CPU     24.87s WALL (       2 calls)
     electrons    :  11680.64s CPU  11866.76s WALL (      22 calls)
     update_pot   :    113.58s CPU    114.04s WALL (      20 calls)
     forces       :    234.78s CPU    237.32s WALL (      22 calls)
     stress       :    304.04s CPU    308.17s WALL (      22 calls)

     Called by init_run:
     wfcinit      :     15.66s CPU     15.94s WALL (       2 calls)
     potinit      :      4.07s CPU      4.13s WALL (       2 calls)
     hinit0       :      3.30s CPU      3.33s WALL (       2 calls)

     Called by electrons:
     c_bands      :  10433.38s CPU  10566.96s WALL (     292 calls)
     sum_band     :    827.23s CPU    859.70s WALL (     292 calls)
     v_of_rho     :     47.47s CPU     49.10s WALL (     302 calls)
     newd         :    162.54s CPU    174.84s WALL (     302 calls)
     PAW_pot      :    238.08s CPU    238.21s WALL (     322 calls)
     mix_rho      :     11.65s CPU     12.07s WALL (     292 calls)

     Called by c_bands:
     init_us_2    :     11.07s CPU     11.52s WALL (    5200 calls)
     cegterg      :  10366.22s CPU  10489.31s WALL (    2365 calls)

     Called by *egterg:
     cdiaghg      :    789.96s CPU    794.70s WALL (   14192 calls)
     h_psi        :   3781.91s CPU   3887.57s WALL (   14493 calls)
     s_psi        :    885.16s CPU    885.90s WALL (   14493 calls)
     g_psi        :     13.67s CPU     13.70s WALL (   12112 calls)

     Called by h_psi:
     h_psi:calbec :   1282.84s CPU   1287.87s WALL (   14493 calls)
     vloc_psi     :   1583.18s CPU   1683.02s WALL (   14493 calls)
     add_vuspsi   :    911.31s CPU    912.15s WALL (   14493 calls)

     General routines
     calbec       :   1865.85s CPU   1872.82s WALL (   17869 calls)
     fft          :     57.81s CPU     60.59s WALL (    8430 calls)
     ffts         :      2.05s CPU      2.18s WALL (    1188 calls)
     fftw         :   1725.07s CPU   1831.41s WALL ( 2014226 calls)
     interpolate  :      3.77s CPU      4.05s WALL (     604 calls)

     Parallel routines
     fft_scatt_xy :    119.57s CPU    128.91s WALL ( 2023844 calls)
     fft_scatt_yz :   1304.31s CPU   1376.76s WALL ( 2023844 calls)

     PWSCF        :      3h26m CPU      3h30m WALL


   This run was terminated on:  11:52:56  27Aug2026            

=------------------------------------------------------------------------------=
   JOB DONE.
=------------------------------------------------------------------------------=
