
     Program PWSCF v.6.7MaX starts on 27Aug2026 at  8: 9:46 

     This program is part of the open-source Quantum ESPRESSO suite
     for quantum simulation of materials; please cite
         "P. Giannozzi et al., J. Phys.:Condens. Matter 21 395502 (2009);
         "P. Giannozzi et al., J. Phys.:Condens. Matter 29 465901 (2017);
          URL http://www.quantum-espresso.org", 
     in publications or presentations arising from this work. More details at
     http://www.quantum-espresso.org/quote

     Parallel version (MPI), running on     8 processors

     MPI processes distributed on     1 nodes
     R & G space division:  proc/nbgrp/npool/nimage =       8
     Reading input from pw.in
Warning: card &CELL ignored
Warning: card    CELL_DYNAMICS    = 'BFGS' ignored
Warning: card    PRESS_CONV_THR   = 0.5 ignored
Warning: card / ignored
Warning: card &FCP ignored
Warning: card / ignored
Warning: card &RISM ignored
Warning: card / ignored

     Current dimensions of program PWSCF are:
     Max number of different atomic species (ntypx) = 10
     Max number of k-points (npk) =  40000
     Max angular momentum in pseudopotentials (lmaxx) =  3
     file Mg.pbe-spnl-kjpaw_psl.1.0.0.UPF: wavefunction(s)  2P renormalized
     file Si.pbe-n-kjpaw_psl.1.0.0.UPF: wavefunction(s)  3S 3P renormalized
     file O.pbe-n-kjpaw_psl.1.0.0.UPF: wavefunction(s)  2S 2P renormalized

     Subspace diagonalization in iterative solution of the eigenvalue problem:
     one sub-group per band group will be used
     scalapack distributed-memory algorithm (size of sub-group:  2*  2 procs)

     Message from routine setup:
     using ibrav=0 with symmetry is DISCOURAGED, use correct ibrav instead

     Parallelization info
     --------------------
     sticks:   dense  smooth     PW     G-vecs:    dense   smooth      PW
     Min        1103     551    150                66935    23683    3376
     Max        1104     555    151                66938    23684    3379
     Sum        8831    4415   1207               535493   189467   27019



     bravais-lattice index     =            0
     lattice parameter (alat)  =       8.9841  a.u.
     unit-cell volume          =    1959.1283 (a.u.)^3
     number of atoms/cell      =           28
     number of atomic types    =            3
     number of electrons       =       192.00
     number of Kohn-Sham states=          115
     kinetic-energy cutoff     =      80.0000  Ry
     charge density cutoff     =     640.0000  Ry
     scf convergence threshold =      1.0E-07
     mixing beta               =       0.3000
     number of iterations used =            8  plain     mixing
     Exchange-correlation= SLA  PW   PBX  PBC
                           (   1   4   3   4   0   0   0)

     celldm(1)=   8.984136  celldm(2)=   0.000000  celldm(3)=   0.000000
     celldm(4)=   0.000000  celldm(5)=   0.000000  celldm(6)=   0.000000

     crystal axes: (cart. coord. in units of alat)
               a(1) = (   1.000000   0.000000   0.000000 )  
               a(2) = (   0.000000   2.146481   0.000000 )  
               a(3) = (   0.000000   0.000000   1.258656 )  

     reciprocal axes: (cart. coord. in units 2 pi/alat)
               b(1) = (  1.000000  0.000000  0.000000 )  
               b(2) = (  0.000000  0.465879  0.000000 )  
               b(3) = (  0.000000  0.000000  0.794499 )  


     PseudoPot. # 1 for Mg read from file:
     /mnt/c/Users/busta/Code/mqmqa/data/olivine/_dft/pseudo/Mg.pbe-spnl-kjpaw_psl.1.0.0.UPF
     MD5 check sum: fda14e0d92a6a9a5ebed782e5a4b3067
     Pseudo is Projector augmented-wave + core cor, Zval = 10.0
     Generated using &quot;atomic&quot; code by A. Dal Corso  v.6.3
     Shape of augmentation charge: PSQ
     Using radial grid of 1129 points,  4 beta functions with: 
                l(1) =   0
                l(2) =   0
                l(3) =   1
                l(4) =   1
     Q(r) pseudized with 0 coefficients 


     PseudoPot. # 2 for Si read from file:
     /mnt/c/Users/busta/Code/mqmqa/data/olivine/_dft/pseudo/Si.pbe-n-kjpaw_psl.1.0.0.UPF
     MD5 check sum: c39c59da582df4a0d9f10159256ea34e
     Pseudo is Projector augmented-wave + core cor, Zval =  4.0
     Generated using &quot;atomic&quot; code by A. Dal Corso  v.6.3
     Shape of augmentation charge: PSQ
     Using radial grid of 1141 points,  6 beta functions with: 
                l(1) =   0
                l(2) =   0
                l(3) =   1
                l(4) =   1
                l(5) =   2
                l(6) =   2
     Q(r) pseudized with 0 coefficients 


     PseudoPot. # 3 for O  read from file:
     /mnt/c/Users/busta/Code/mqmqa/data/olivine/_dft/pseudo/O.pbe-n-kjpaw_psl.1.0.0.UPF
     MD5 check sum: e99d9cef9b487d1ca56f5b95ecd0fd7a
     Pseudo is Projector augmented-wave + core cor, Zval =  6.0
     Generated using &quot;atomic&quot; code by A. Dal Corso  v.6.3
     Shape of augmentation charge: PSQ
     Using radial grid of 1095 points,  4 beta functions with: 
                l(1) =   0
                l(2) =   0
                l(3) =   1
                l(4) =   1
     Q(r) pseudized with 0 coefficients 


     atomic species   valence    mass     pseudopotential
        Mg            10.00    24.30500     Mg( 1.00)
        Si             4.00    28.08500     Si( 1.00)
        O              6.00    15.99900     O ( 1.00)

     Starting magnetic structure 
     atomic species   magnetization
        Mg           0.000
        Si           0.000
        O            0.000

      8 Sym. Ops., with inversion, found ( 6 have fractional translation)



   Cartesian axes

     site n.     atom                  positions (alat units)
         1           Mg  tau(   1) = (   0.0000000   0.0000000   0.0000000  )
         2           Mg  tau(   2) = (   0.5000000   1.0732405   0.0000000  )
         3           Mg  tau(   3) = (   0.0000000   0.0000000   0.6293278  )
         4           Mg  tau(   4) = (   0.5000000   1.0732405   0.6293278  )
         5           Mg  tau(   5) = (   0.0147000   0.5941459   0.9439916  )
         6           Mg  tau(   6) = (   0.9853000   1.5523351   0.3146639  )
         7           Mg  tau(   7) = (   0.5147000   0.4790946   0.3146639  )
         8           Mg  tau(   8) = (   0.4853000   1.6673864   0.9439916  )
         9           Si  tau(   9) = (   0.0701000   0.8607389   0.3146639  )
        10           Si  tau(  10) = (   0.9299000   1.2857421   0.9439916  )
        11           Si  tau(  11) = (   0.5701000   0.2125016   0.9439916  )
        12           Si  tau(  12) = (   0.4299000   1.9339794   0.3146639  )
        13           O   tau(  13) = (   0.2461000   0.1833095   0.9439916  )
        14           O   tau(  14) = (   0.7539000   1.9631715   0.3146639  )
        15           O   tau(  15) = (   0.7461000   0.8899310   0.3146639  )
        16           O   tau(  16) = (   0.2539000   1.2565500   0.9439916  )
        17           O   tau(  17) = (   0.2809000   0.1047483   0.3146639  )
        18           O   tau(  18) = (   0.7191000   2.0417327   0.9439916  )
        19           O   tau(  19) = (   0.7809000   0.9684922   0.9439916  )
        20           O   tau(  20) = (   0.2191000   1.1779888   0.3146639  )
        21           O   tau(  21) = (   0.2222000   0.7424678   0.5588430  )
        22           O   tau(  22) = (   0.7778000   1.4040132   0.6998125  )
        23           O   tau(  23) = (   0.7222000   0.3307727   0.6998125  )
        24           O   tau(  24) = (   0.2778000   1.8157083   0.5588430  )
        25           O   tau(  25) = (   0.7778000   1.4040132   1.1881708  )
        26           O   tau(  26) = (   0.2222000   0.7424678   0.0704847  )
        27           O   tau(  27) = (   0.2778000   1.8157083   0.0704847  )
        28           O   tau(  28) = (   0.7222000   0.3307727   1.1881708  )

     number of k points=     8  Gaussian smearing, width (Ry)=  0.0100
                       cart. coord. in units 2pi/alat
        k(    1) = (   0.0000000   0.0000000   0.0000000), wk =   0.0833333
        k(    2) = (   0.0000000   0.0000000  -0.3972493), wk =   0.0833333
        k(    3) = (   0.0000000  -0.2329394   0.0000000), wk =   0.0833333
        k(    4) = (   0.0000000  -0.2329394  -0.3972493), wk =   0.0833333
        k(    5) = (   0.3333333   0.0000000   0.0000000), wk =   0.1666667
        k(    6) = (   0.3333333   0.0000000  -0.3972493), wk =   0.1666667
        k(    7) = (   0.3333333  -0.2329394   0.0000000), wk =   0.1666667
        k(    8) = (   0.3333333  -0.2329394  -0.3972493), wk =   0.1666667

     Dense  grid:   535493 G-vectors     FFT dimensions: (  80, 160,  96)

     Smooth grid:   189467 G-vectors     FFT dimensions: (  54, 120,  72)

     Estimated max dynamical RAM per process >     412.81 MB

     Estimated total dynamical RAM >       3.23 GB

     Check: negative core charge=   -0.000003
     Generating pointlists ...
     new r_m :   0.1793 (alat units)  1.6107 (a.u.) for type    1
     new r_m :   0.1283 (alat units)  1.1527 (a.u.) for type    2
     new r_m :   0.1283 (alat units)  1.1527 (a.u.) for type    3

     Initial potential from superposition of free atoms

     starting charge  191.99035, renormalised to  192.00000
     Starting wfcs are  120 randomized atomic wfcs
     Checking if some PAW data can be deallocated... 

     total cpu time spent up to now is       25.8 secs

     Self-consistent Calculation

     iteration #  1     ecut=    80.00 Ry     beta= 0.30
     Davidson diagonalization with overlap
     ethr =  1.00E-02,  avg # of iterations =  5.4

     total cpu time spent up to now is      143.0 secs

     total energy              =   -1986.15260602 Ry
     estimated scf accuracy    <       8.19555709 Ry

     total magnetization       =     0.00 Bohr mag/cell
     absolute magnetization    =     0.03 Bohr mag/cell

     iteration #  2     ecut=    80.00 Ry     beta= 0.30
     Davidson diagonalization with overlap
     ethr =  4.27E-03,  avg # of iterations =  2.0

     total cpu time spent up to now is      238.4 secs

     total energy              =   -1986.64880839 Ry
     estimated scf accuracy    <       1.21194983 Ry

     total magnetization       =    -0.00 Bohr mag/cell
     absolute magnetization    =     0.04 Bohr mag/cell

     iteration #  3     ecut=    80.00 Ry     beta= 0.30
     Davidson diagonalization with overlap
     ethr =  6.31E-04,  avg # of iterations =  7.4

     total cpu time spent up to now is      408.9 secs

     total energy              =   -1987.64165550 Ry
     estimated scf accuracy    <       0.81701961 Ry

     total magnetization       =     0.00 Bohr mag/cell
     absolute magnetization    =     0.02 Bohr mag/cell

     iteration #  4     ecut=    80.00 Ry     beta= 0.30
     Davidson diagonalization with overlap
