160
Lattice="11.17507144050814 0.0 -5.050283053233115 -8.304328559491859 8.917400000000002 -5.050283053233115 8.304328559491859 8.917400000000002 5.050283053233115" Properties=species:S:1:pos:R:3 pbc="T T T"
Mg       5.94637858      12.55641259      -3.78771229
Fe       5.22869286       5.27838741      -1.26257076
Ca       5.94637858       7.14711775      -3.78771229
Ca       5.22869286      10.68768225      -1.26257076
Si       3.89355939       9.74841251      -3.89195013
Si       7.99919777       9.74841251      -3.68347445
Si       7.28151205       8.08638749      -1.15833292
Si       3.17587367       8.08638749      -1.36680861
O        2.35707459       9.69232206      -4.33384990
O        9.53568257       9.69232206      -3.24157468
O        8.81799685       8.14247794      -0.71643315
O        1.63938887       8.14247794      -1.80870837
O        4.49471513      11.14844431      -3.44550511
O        7.39804203      11.14844431      -4.12991947
O        6.68035631       6.68635569      -1.60477794
O        3.77702941       6.68635569      -0.92036358
O        3.42256463       9.07291946      -0.02307979
O        7.03482109       9.07291946      -2.50206173
O        7.75250681       8.76188054      -5.02720326
O        4.14025035       8.76188054      -2.54822132
Fe       4.51100714      12.55641259       1.26257076
Mg       6.66406430      14.19578741      -6.31285382
Ca       4.51100714       7.14711775       1.26257076
Ca      14.96839286      10.68768225      -1.26257076
Si       2.45818795       9.74841251       1.15833292
Si       6.56382633       9.74841251       1.36680861
Si      17.02121205       8.08638749      -1.15833292
Si      12.91557367       8.08638749      -1.36680861
O       12.09677459       9.69232206      -4.33384990
O        8.10031113       9.69232206       1.80870837
O        7.38262541       8.14247794       4.33384990
O       11.37908887       8.14247794      -1.80870837
O        3.05934369      11.14844431       1.60477794
O        5.96267059      11.14844431       0.92036358
O       16.42005631       6.68635569      -1.60477794
O       13.51672941       6.68635569      -0.92036358
O       13.16226463       9.07291946      -0.02307979
O        5.59944965       9.07291946       2.54822132
O        6.31713537       8.76188054       0.02307979
O       13.87995035       8.76188054      -2.54822132
Mg       2.51190002       8.09771259      -8.83799534
Mg      10.09854286       9.73708741      -1.26257076
Ca      10.81622858      11.60581775      -3.78771229
Ca       1.79421430       6.22898225      -6.31285382
Si       8.76340939      14.20711251      -3.89195013
Si      12.86904777      14.20711251      -3.68347445
Si      12.15136205      12.54508749      -1.15833292
Si       8.04572367      12.54508749      -1.36680861
O        7.22692459      14.15102206      -4.33384990
O        3.23046113      14.15102206       1.80870837
O        5.38351830       3.68377794      -5.76671621
O        6.50923887      12.60117794      -1.80870837
O        9.36456513      15.60714431      -3.44550511
O       12.26789203      15.60714431      -4.12991947
O       11.55020631      11.14505569      -1.60477794
O        8.64687941      11.14505569      -0.92036358
O        8.29241463      13.53161946      -0.02307979
O       11.90467109      13.53161946      -2.50206173
O        1.44728537      13.22058054       0.02307979
O        9.01010035      13.22058054      -2.54822132
Mg       1.07652858       8.09771259      -3.78771229
Mg       8.66317142       9.73708741       3.78771229
Ca       9.38085714      11.60581775       1.26257076
Ca       0.35884286       6.22898225      -1.26257076
Si      -0.97629061       5.28971251      -3.89195013
Si       3.12934777       5.28971251      -3.68347445
Si       2.41166205       3.62768749      -1.15833292
Si      -1.69397633       3.62768749      -1.36680861
O        5.79155315      14.15102206       0.71643315
O        4.66583257       5.23362206      -3.24157468
O        3.94814685       3.68377794      -0.71643315
O        7.94461031       3.68377794      -6.85899143
O       -0.37513487       6.68974431      -3.44550511
O        2.52819203       6.68974431      -4.12991947
O        1.81050631       2.22765569      -1.60477794
O       -1.09282059       2.22765569      -0.92036358
O        9.72778607       4.61421946      -5.07336285
O        2.16497109       4.61421946      -2.50206173
O        2.88265681       4.30318054      -5.02720326
O       -0.72959965       4.30318054      -2.54822132
Mg       4.51100714       3.63901259       1.26257076
Mg       6.66406430       5.27838741      -6.31285382
Ca      -3.79332142       7.14711775      -3.78771229
Ca       6.66406430      10.68768225      -6.31285382
Si      -5.84614061       9.74841251      -3.89195013
Si      -1.74050223       9.74841251      -3.68347445
Si       8.71688349       8.08638749      -6.20861597
Si       4.61124511       8.08638749      -6.41709166
O        3.79244603       9.69232206      -9.38413295
O       -0.20401743       9.69232206      -3.24157468
O       -0.92170315       8.14247794      -0.71643315
O        3.07476031       8.14247794      -6.85899143
O       -5.24498487      11.14844431      -3.44550511
O       -2.34165797      11.14844431      -4.12991947
O        8.11572775       6.68635569      -6.65506100
O        5.21240085       6.68635569      -5.97064664
O        4.85793607       9.07291946      -5.07336285
O       -2.70487891       9.07291946      -2.50206173
O       -1.98719319       8.76188054      -5.02720326
O        5.57562179       8.76188054      -7.59850437
Mg      10.81622858       8.09771259      -3.78771229
Mg       1.79421430       9.73708741      -6.31285382
Ca      10.81622858       2.68841775      -3.78771229
Ca      10.09854286       6.22898225      -1.26257076
Si       8.76340939       5.28971251      -3.89195013
Si      12.86904777       5.28971251      -3.68347445
Si       3.84703349      12.54508749      -6.20861597
Si       8.04572367       3.62768749      -1.36680861
O        7.22692459       5.23362206      -4.33384990
O        3.23046113       5.23362206       1.80870837
O        5.38351830      12.60117794      -5.76671621
O        6.50923887       3.68377794      -1.80870837
O        9.36456513       6.68974431      -3.44550511
O       12.26789203       6.68974431      -4.12991947
O        3.24587775      11.14505569      -6.65506100
O        0.34255085      11.14505569      -5.97064664
O        8.29241463       4.61421946      -0.02307979
O       11.90467109       4.61421946      -2.50206173
O        1.44728537       4.30318054       0.02307979
O        9.01010035       4.30318054      -2.54822132
Fe       9.38085714       8.09771259       1.26257076
Mg       0.35884286       9.73708741      -1.26257076
Ca       1.07652858      11.60581775      -3.78771229
Ca       0.35884286      15.14638225      -1.26257076
Si       7.32803795       5.28971251       1.15833292
Si       3.12934777      14.20711251      -3.68347445
Si       2.41166205      12.54508749      -1.15833292
Si      -1.69397633      12.54508749      -1.36680861
O        5.79155315       5.23362206       0.71643315
O        4.66583257      14.15102206      -3.24157468
O        3.94814685      12.60117794      -0.71643315
O        7.94461031      12.60117794      -6.85899143
O        7.92919369       6.68974431       1.60477794
O       10.83252059       6.68974431       0.92036358
O        1.81050631      11.14505569      -1.60477794
O       -1.09282059      11.14505569      -0.92036358
O        9.72778607      13.53161946      -5.07336285
O        2.16497109      13.53161946      -2.50206173
O        2.88265681      13.22058054      -5.02720326
O       -0.72959965      13.22058054      -2.54822132
Fe       5.94637858       3.63901259      -3.78771229
Mg       5.22869286      14.19578741      -1.26257076
Ca       5.94637858      16.06451775      -3.78771229
Ca       5.22869286       1.77028225      -1.26257076
Si      12.19788795       9.74841251       1.15833292
Si       7.99919777       0.83101251      -3.68347445
Si      -1.02281651       8.08638749      -6.20861597
Si       3.17587367      17.00378749      -1.36680861
O       10.66140315       9.69232206       0.71643315
O        1.23135402       9.69232206      -8.29185773
O        0.51366830       8.14247794      -5.76671621
O        9.94371743       8.14247794       3.24157468
O        4.49471513       2.23104431      -3.44550511
O        7.39804203       2.23104431      -4.12991947
O        6.68035631      15.60375569      -1.60477794
O        3.77702941      15.60375569      -0.92036358
O       -4.88176393       9.07291946      -5.07336285
O       -1.26950747       9.07291946      -7.55234479
O       16.05683537       8.76188054       0.02307979
O       12.44457891       8.76188054       2.50206173
