320
Lattice="14.609549999999999 4.458700000000001 0.0 -3.4344785594918603 13.376100000000005 -5.050283053233115 0.5637356784755811 4.458700000000001 15.150849159699344" Properties=species:S:1:pos:R:3 pbc="T T T"
Fe       4.51100714      12.55641259       1.26257076
Fe       3.79332142       5.27838741       3.78771229
Ca       4.51100714       7.14711775       1.26257076
Ca       3.79332142      10.68768225       3.78771229
Si       2.45818795       9.74841251       1.15833292
Si       6.56382633       9.74841251       1.36680861
Si       5.84614061       8.08638749       3.89195013
Si       1.74050223       8.08638749       3.68347445
O        0.92170315       9.69232206       0.71643315
O        8.10031113       9.69232206       1.80870837
O        7.38262541       8.14247794       4.33384990
O        0.20401743       8.14247794       3.24157468
O        3.05934369      11.14844431       1.60477794
O        5.96267059      11.14844431       0.92036358
O        5.24498487       6.68635569       3.44550511
O        2.34165797       6.68635569       4.12991947
O        1.98719319       9.07291946       5.02720326
O        5.59944965       9.07291946       2.54822132
O        6.31713537       8.76188054       0.02307979
O        2.70487891       8.76188054       2.50206173
Mg       3.07563570      12.55641259       6.31285382
Mg       2.35794998       5.27838741       8.83799534
Ca       3.07563570       7.14711775       6.31285382
Ca       2.35794998      10.68768225       8.83799534
Si       1.02281651       9.74841251       6.20861597
Si       5.12845489       9.74841251       6.41709166
Si       4.41076917       8.08638749       8.94223319
Si       0.30513079       8.08638749       8.73375750
O       -0.51366830       9.69232206       5.76671621
O        6.66493969       9.69232206       6.85899143
O        5.94725397       8.14247794       9.38413295
O       13.37819598      12.60117794       8.29185773
O        1.62397225      11.14844431       6.65506100
O        4.52729915      11.14844431       5.97064664
O        3.80961343       6.68635569       8.49578816
O        0.90628653       6.68635569       9.18020252
O        0.55182175       9.07291946      10.07748631
O        4.16407821       9.07291946       7.59850437
O        4.88176393       8.76188054       5.07336285
O        1.26950747       8.76188054       7.55234479
Fe       9.38085714      17.01511259       1.26257076
Fe       8.66317142       9.73708741       3.78771229
Ca       9.38085714      11.60581775       1.26257076
Ca       8.66317142      15.14638225       3.78771229
Si       7.32803795      14.20711251       1.15833292
Si      11.43367633      14.20711251       1.36680861
Si      10.71599061      12.54508749       3.89195013
Si       6.61035223      12.54508749       3.68347445
O        5.79155315      14.15102206       0.71643315
O       -1.63938887       9.69232206       1.80870837
O       12.25247541      12.60117794       4.33384990
O        5.07386743      12.60117794       3.24157468
O        7.92919369      15.60714431       1.60477794
O       10.83252059      15.60714431       0.92036358
O       10.11483487      11.14505569       3.44550511
O        7.21150797      11.14505569       4.12991947
O        6.85704319      13.53161946       5.02720326
O       10.46929965      13.53161946       2.54822132
O       11.18698537      13.22058054       0.02307979
O        7.57472891      13.22058054       2.50206173
Fe       7.94548570      17.01511259       6.31285382
Fe       7.22779998       9.73708741       8.83799534
Ca       7.94548570      11.60581775       6.31285382
Ca       7.22779998      15.14638225       8.83799534
Si       5.89266651      14.20711251       6.20861597
Si       9.99830489      14.20711251       6.41709166
Si       9.28061917      12.54508749       8.94223319
Si       5.17498079      12.54508749       8.73375750
O        4.35618170      14.15102206       5.76671621
O       11.53478969      14.15102206       6.85899143
O       10.81710397      12.60117794       9.38413295
O        3.63849598      12.60117794       8.29185773
O        6.49382225      15.60714431       6.65506100
O        9.39714915      15.60714431       5.97064664
O        8.67946343      11.14505569       8.49578816
O        5.77613653      11.14505569       9.18020252
O        5.42167175      13.53161946      10.07748631
O        9.03392821      13.53161946       7.59850437
O        9.75161393      13.22058054       5.07336285
O        6.13935747      13.22058054       7.55234479
Mg       6.51011426      17.01511259      11.36313687
Mg       5.22869286       5.27838741      -1.26257076
Ca       6.51011426      11.60581775      11.36313687
Ca       5.22869286      10.68768225      -1.26257076
Si       4.45729507      14.20711251      11.25889903
Si       8.56293345      14.20711251      11.46737471
Si       7.28151205       8.08638749      -1.15833292
Si       3.17587367       8.08638749      -1.36680861
O        2.92081026      14.15102206      10.81699926
O       10.09941825      14.15102206      11.90927448
O        8.81799685       8.14247794      -0.71643315
O        1.63938887       8.14247794      -1.80870837
O        5.05845081      15.60714431      11.70534405
O        7.96177771      15.60714431      11.02092969
O        6.68035631       6.68635569      -1.60477794
O        3.77702941       6.68635569      -0.92036358
O        3.42256463       9.07291946      -0.02307979
O        7.59855677      13.53161946      12.64878743
O        8.31624249      13.22058054      10.12364590
O        4.14025035       8.76188054      -2.54822132
Fe       3.07563570       3.63901259       6.31285382
Fe      -1.07652858       9.73708741       3.78771229
Ca      -0.35884286      11.60581775       1.26257076
Ca      -1.07652858      15.14638225       3.78771229
Si      -2.41166205      14.20711251       1.15833292
Si       1.69397633      14.20711251       1.36680861
Si       0.97629061      12.54508749       3.89195013
Si      11.48020223      17.00378749       3.68347445
O       10.66140315      18.60972206       0.71643315
O        3.23046113      14.15102206       1.80870837
O        2.51277541      12.60117794       4.33384990
O        9.94371743      17.05987794       3.24157468
O       -1.81050631      15.60714431       1.60477794
O        1.09282059      15.60714431       0.92036358
O        0.37513487      11.14505569       3.44550511
O       12.08135797      15.60375569       4.12991947
O       11.72689319      17.99031946       5.02720326
O        0.72959965      13.53161946       2.54822132
O        1.44728537      13.22058054       0.02307979
O       -2.16497109      13.22058054       2.50206173
Fe      -1.79421430      17.01511259       6.31285382
Mg      12.09764998      14.19578741       8.83799534
Ca      -1.79421430      11.60581775       6.31285382
Ca      12.09764998      19.60508225       8.83799534
Si      10.76251651      18.66581251       6.20861597
Si       0.25860489      14.20711251       6.41709166
Si      -0.45908083      12.54508749       8.94223319
Si      10.04483079      17.00378749       8.73375750
O        9.22603170      18.60972206       5.76671621
O        1.79508969      14.15102206       6.85899143
O        1.07740397      12.60117794       9.38413295
O        8.50834598      17.05987794       8.29185773
O       11.36367225      20.06584431       6.65506100
O       -0.34255085      15.60714431       5.97064664
O       -1.06023657      11.14505569       8.49578816
O       10.64598653      15.60375569       9.18020252
O       10.29152175      17.99031946      10.07748631
O       -0.70577179      13.53161946       7.59850437
O        0.01191393      13.22058054       5.07336285
O       11.00920747      17.67928054       7.55234479
Fe      10.81622858      17.01511259      -3.78771229
Fe      10.09854286       9.73708741      -1.26257076
Ca      11.37996426      16.06451775      11.36313687
Ca      10.09854286      15.14638225      -1.26257076
Si       8.76340939      14.20711251      -3.89195013
Si      -1.17676655      14.20711251      11.46737471
Si      12.15136205      12.54508749      -1.15833292
Si       8.04572367      12.54508749      -1.36680861
O        7.79066026      18.60972206      10.81699926
O       -0.20401743       9.69232206      -3.24157468
O       -0.92170315       8.14247794      -0.71643315
O        6.50923887      12.60117794      -1.80870837
O        9.36456513      15.60714431      -3.44550511
O       -2.34165797      11.14844431      -4.12991947
O       11.55020631      11.14505569      -1.60477794
O        8.64687941      11.14505569      -0.92036358
O        8.29241463      13.53161946      -0.02307979
O       11.90467109      13.53161946      -2.50206173
O       -1.42345751      13.22058054      10.12364590
O        9.01010035      13.22058054      -2.54822132
Mg       4.51100714       3.63901259       1.26257076
Fe       0.35884286       9.73708741      -1.26257076
Ca       1.07652858      11.60581775      -3.78771229
Ca       0.35884286      15.14638225      -1.26257076
Si      -0.97629061      14.20711251      -3.89195013
Si       3.12934777      14.20711251      -3.68347445
Si       2.41166205      12.54508749      -1.15833292
Si      -1.69397633      12.54508749      -1.36680861
O        0.92170315       0.77492206       0.71643315
O        4.66583257      14.15102206      -3.24157468
O        3.94814685      12.60117794      -0.71643315
O       11.37908887      17.05987794      -1.80870837
O        3.05934369       2.23104431       1.60477794
O        5.96267059       2.23104431       0.92036358
O        1.81050631      11.14505569      -1.60477794
O       -1.09282059      11.14505569      -0.92036358
O       -1.44728537      13.53161946      -0.02307979
O        2.16497109      13.53161946      -2.50206173
O        3.44639249      17.67928054      10.12364590
O       -0.72959965      13.22058054      -2.54822132
Fe       9.38085714       8.09771259       1.26257076
Mg       5.22869286      14.19578741      -1.26257076
Ca       5.94637858      16.06451775      -3.78771229
Ca       8.66317142       6.22898225       3.78771229
Si       7.32803795       5.28971251       1.15833292
Si      11.43367633       5.28971251       1.36680861
Si       7.28151205      17.00378749      -1.15833292
Si       6.61035223       3.62768749       3.68347445
O        5.79155315       5.23362206       0.71643315
O       12.97016113       5.23362206       1.80870837
O        8.81799685      17.05987794      -0.71643315
O        5.07386743       3.68377794       3.24157468
O        7.92919369       6.68974431       1.60477794
O       10.83252059       6.68974431       0.92036358
O        6.68035631      15.60375569      -1.60477794
O        3.77702941      15.60375569      -0.92036358
O        6.85704319       4.61421946       5.02720326
O       10.46929965       4.61421946       2.54822132
O       11.18698537       4.30318054       0.02307979
O        7.57472891       4.30318054       2.50206173
Fe       7.94548570       8.09771259       6.31285382
Fe       3.79332142      14.19578741       3.78771229
Ca       4.51100714      16.06451775       1.26257076
Ca       7.22779998       6.22898225       8.83799534
Si       5.89266651       5.28971251       6.20861597
Si       9.99830489       5.28971251       6.41709166
Si       5.84614061      17.00378749       3.89195013
Si       1.74050223      17.00378749       3.68347445
O        4.35618170       5.23362206       5.76671621
O        8.10031113      18.60972206       1.80870837
O        7.38262541      17.05987794       4.33384990
O        3.63849598       3.68377794       8.29185773
O        6.49382225       6.68974431       6.65506100
O        9.39714915       6.68974431       5.97064664
O        5.24498487      15.60375569       3.44550511
O        2.34165797      15.60375569       4.12991947
O        5.42167175       4.61421946      10.07748631
O        5.59944965      17.99031946       2.54822132
O        6.31713537      17.67928054       0.02307979
O        6.13935747       4.30318054       7.55234479
Fe       6.51011426       8.09771259      11.36313687
Fe       2.35794998      14.19578741       8.83799534
Ca       3.07563570      16.06451775       6.31285382
Ca       5.79242854       6.22898225      13.88827840
Si       4.45729507       5.28971251      11.25889903
Si       5.12845489      18.66581251       6.41709166
Si       4.41076917      17.00378749       8.94223319
Si       0.30513079      17.00378749       8.73375750
O        2.92081026       5.23362206      10.81699926
O        6.66493969      18.60972206       6.85899143
O        5.94725397      17.05987794       9.38413295
O       -1.23135402      17.05987794       8.29185773
O        5.05845081       6.68974431      11.70534405
O        7.96177771       6.68974431      11.02092969
O        3.80961343      15.60375569       8.49578816
O        0.90628653      15.60375569       9.18020252
O        0.55182175      17.99031946      10.07748631
O        4.16407821      17.99031946       7.59850437
O        4.88176393      17.67928054       5.07336285
O        1.26950747      17.67928054       7.55234479
Fe      -0.35884286       8.09771259       1.26257076
Fe      13.53302142       5.27838741       3.78771229
Ca      -0.35884286       2.68841775       1.26257076
Ca      13.53302142      10.68768225       3.78771229
Si      12.19788795       9.74841251       1.15833292
Si       1.69397633       5.28971251       1.36680861
Si       0.97629061       3.62768749       3.89195013
Si      11.48020223       8.08638749       3.68347445
O       10.66140315       9.69232206       0.71643315
O        3.23046113       5.23362206       1.80870837
O        2.51277541       3.68377794       4.33384990
O        9.94371743       8.14247794       3.24157468
O       12.79904369      11.14844431       1.60477794
O        1.09282059       6.68974431       0.92036358
O        0.37513487       2.22765569       3.44550511
O       12.08135797       6.68635569       4.12991947
O       11.72689319       9.07291946       5.02720326
O        0.72959965       4.61421946       2.54822132
O        1.44728537       4.30318054       0.02307979
O       12.44457891       8.76188054       2.50206173
Fe      12.81533570      12.55641259       6.31285382
Fe       8.66317142      18.65448741       3.78771229
Ca      12.81533570       7.14711775       6.31285382
Ca      12.09764998      10.68768225       8.83799534
Si      10.76251651       9.74841251       6.20861597
Si       0.25860489       5.28971251       6.41709166
Si      14.15046917       8.08638749       8.94223319
Si      10.04483079       8.08638749       8.73375750
O        9.22603170       9.69232206       5.76671621
O        1.79508969       5.23362206       6.85899143
O        1.07740397       3.68377794       9.38413295
O        8.50834598       8.14247794       8.29185773
O       11.36367225      11.14844431       6.65506100
O       -0.34255085       6.68974431       5.97064664
O       13.54931343       6.68635569       8.49578816
O       10.64598653       6.68635569       9.18020252
O       10.29152175       9.07291946      10.07748631
O       13.90377821       9.07291946       7.59850437
O        0.01191393       4.30318054       5.07336285
O       11.00920747       8.76188054       7.55234479
Fe      11.37996426      12.55641259      11.36313687
Fe       7.22779998      18.65448741       8.83799534
Ca      11.37996426       7.14711775      11.36313687
Ca      10.66227854      10.68768225      13.88827840
Si       9.32714507       9.74841251      11.25889903
Si      13.43278345       9.74841251      11.46737471
Si      12.71509773       8.08638749      13.99251624
Si       8.60945935       8.08638749      13.78404055
O        7.79066026       9.69232206      10.81699926
O        0.35971825       5.23362206      11.90927448
O       10.81710397      21.51857794       9.38413295
O        7.07297454       8.14247794      13.34214079
O        9.92830081      11.14844431      11.70534405
O       12.83162771      11.14844431      11.02092969
O        8.67946343      20.06245569       8.49578816
O        5.77613653      20.06245569       9.18020252
O        8.29241463       4.61421946      -0.02307979
O       12.46840677       9.07291946      12.64878743
O       13.18609249       8.76188054      10.12364590
O        9.57383603       8.76188054      12.60262784
Fe       1.64026426      12.55641259      11.36313687
Mg       0.92257854       5.27838741      13.88827840
Ca       1.64026426       7.14711775      11.36313687
Ca       0.35884286       6.22898225      -1.26257076
Si      -0.41255493       9.74841251      11.25889903
Si       3.69308345       9.74841251      11.46737471
Si       2.97539773       8.08638749      13.99251624
Si      12.91557367       8.08638749      -1.36680861
O       12.66051026      14.15102206      10.81699926
O        5.22956825       9.69232206      11.90927448
O        3.94814685       3.68377794      -0.71643315
O       11.94282454      12.60117794      13.34214079
O        0.18860081      11.14844431      11.70534405
O        3.09192771      11.14844431      11.02092969
O        2.37424199       6.68635569      13.54607122
O       14.08046509      11.14505569      14.23048558
O       13.16226463       9.07291946      -0.02307979
O        2.72870677       9.07291946      12.64878743
O        3.44639249       8.76188054      10.12364590
O       -0.16586397       8.76188054      12.60262784
