320
Lattice="18.25099 0.0 0.0 0.0 8.814 10.362000000000002 0.0 -8.814 10.362000000000002" Properties=species:S:1:pos:R:3 pbc="T T T"
Mg       6.85872204      -3.05228820      14.84874600
Fe      15.98421704      -1.35471180      11.05625400
Mg      11.39226796       1.35471180       3.28475400
Mg       2.26677296      -5.76171180      12.25824600
Fe      11.39226796      -5.76171180      11.05625400
Mg       2.26677296       1.35471180       4.48674600
Mg       6.85872204      -1.35471180      12.25824600
Fe      15.98421704      -3.05228820      13.64675400
Fe       6.87697303      -4.52246340      12.22197900
Fe      16.00246803       0.11546340       3.32102100
Fe      11.37401697      -0.11546340      11.09252100
Fe       2.24852197      -4.29153660      14.81247900
Mg      11.37401697      -4.29153660      13.68302100
Fe       2.24852197      -0.11546340      12.22197900
Fe       6.87697303       0.11546340       4.45047900
Mg      16.00246803      -4.52246340      11.09252100
Si       4.95879398      -5.80401900      10.62364050
Si      14.08428898       1.39701900       4.91935950
Si      13.29219602      -1.39701900      12.69085950
Si       4.16670102      -3.00998100      13.21414050
Si      13.29219602      -3.00998100      15.28135950
Si       4.16670102      -1.39701900      10.62364050
Si       4.95879398       1.39701900       2.85214050
Si      14.08428898      -5.80401900      12.69085950
Si       8.64184377       2.97384360       4.13599230
Si      17.76733877      -7.38084360      11.40700770
Si       9.60914624      -1.43315640      13.99750770
Si       0.48365124      -2.97384360      11.90749230
Si       9.60914624      -2.97384360      11.40700770
Si       0.48365124      -1.43315640      14.49799230
Si       8.64184377      -7.38084360      11.90749230
Si      17.76733877       2.97384360       3.63550770
O        3.34723157      -5.81724000      10.54644360
O       12.47272657       1.41024000       4.99655640
O       14.90375843      -1.41024000      12.76805640
O        5.77826343      -2.99676000      13.13694360
O       14.90375843      -2.99676000      15.35855640
O        5.77826343      -1.41024000      10.54644360
O        3.34723157       1.41024000       2.77494360
O       12.47272657      -5.81724000      12.76805640
O       10.26618188       2.99940420       4.14583620
O        1.14068688      -7.40640420      11.39716380
O        7.98480813      -1.40759580      13.98766380
O       17.11030313      -2.99940420      11.91733620
O        7.98480813      -2.99940420      11.39716380
O       17.11030313      -1.40759580      14.50783620
O       10.26618188      -7.40640420      11.91733620
O        1.14068688       2.99940420       3.62566380
O        5.67240769      -4.38320220      10.58581920
O       14.79790269      -0.02379780      15.31918080
O       12.57858231       0.02379780       2.36668080
O        3.45308731      -4.43079780      13.17631920
O       12.57858231      -4.43079780      15.31918080
O        3.45308731       0.02379780       0.22381920
O        5.67240769      -0.02379780      13.17631920
O       14.79790269      -4.38320220      12.72868080
O        7.89720337      -4.55419380      13.93481760
O       17.02269837       0.14719380       1.60818240
O       10.35378663      -0.14719380      14.56068240
O        1.22829163      -4.25980620      11.34431760
O       10.35378663      -4.25980620      11.97018240
O        1.22829163      -0.14719380      13.93481760
O        7.89720337       0.14719380       0.98231760
O       17.02269837      -4.55419380      14.56068240
O        5.53370017       1.96199640       4.31111010
O       14.65919517      -6.36899640      11.23188990
O       12.71728983      -2.44500360      13.82238990
O        3.59179483      -1.96199640      12.08261010
O       12.71728983      -1.96199640      11.23188990
O        3.59179483      -2.44500360      14.67311010
O        5.53370017      -6.36899640      12.08261010
O       14.65919517       1.96199640       3.46038990
O        8.16731803       1.72313700       3.12932400
O       17.29281303      -6.13013700      12.41367600
O       10.08367198      -2.68386300      15.00417600
O        0.95817698      -1.72313700      10.90082400
O       10.08367198      -1.72313700      12.41367600
O        0.95817698      -2.68386300      13.49132400
O        8.16731803      -6.13013700      10.90082400
O       17.29281303       1.72313700       4.64217600
Fe       6.85872204      -3.05228820       9.66774600
Fe      15.98421704      -1.35471180       5.87525400
Fe      11.39226796       1.35471180      18.82775400
Fe       2.26677296      -5.76171180       7.07724600
Fe      11.39226796       3.05228820      16.23725400
Fe       2.26677296      -7.45928820       9.66774600
Mg       6.85872204      -1.35471180       7.07724600
Fe      15.98421704      -3.05228820       8.46575400
Fe       6.87697303      -4.52246340       7.04097900
Mg      16.00246803       0.11546340      18.86402100
Fe      11.37401697      -0.11546340       5.91152100
Mg       2.24852197      -4.29153660       9.63147900
Fe      11.37401697      -4.29153660       8.50202100
Mg       2.24852197      -0.11546340       7.04097900
Fe       6.87697303       0.11546340      19.99347900
Fe      16.00246803      -4.52246340       5.91152100
Si       4.95879398       3.00998100      15.80464050
Si      14.08428898      -7.41698100      10.10035950
Si      13.29219602      -1.39701900       7.50985950
Si       4.16670102      -3.00998100       8.03314050
Si      13.29219602      -3.00998100      10.10035950
Si       4.16670102      -1.39701900       5.44264050
Si       4.95879398       1.39701900      18.39514050
Si      14.08428898      -5.80401900       7.50985950
Si       8.64184377      -5.84015640       9.31699230
Si      17.76733877       1.43315640      16.58800770
Si       9.60914624      -1.43315640       8.81650770
Si       0.48365124      -2.97384360       6.72649230
Si       9.60914624      -2.97384360       6.22600770
Si       0.48365124      -1.43315640       9.31699230
Si       8.64184377       1.43315640      17.08849230
Si      17.76733877      -5.84015640       8.81650770
O        3.34723157       2.99676000      15.72744360
O       12.47272657      -7.40376000      10.17755640
O       14.90375843      -1.41024000       7.58705640
O        5.77826343      -2.99676000       7.95594360
O       14.90375843      -2.99676000      10.17755640
O        5.77826343      -1.41024000       5.36544360
O        3.34723157       1.41024000      18.31794360
O       12.47272657      -5.81724000       7.58705640
O       10.26618188      -5.81459580       9.32683620
O        1.14068688       1.40759580      16.57816380
O        7.98480813      -1.40759580       8.80666380
O       17.11030313      -2.99940420       6.73633620
O        7.98480813      -2.99940420       6.21616380
O       17.11030313      -1.40759580       9.32683620
O       10.26618188       1.40759580      17.09833620
O        1.14068688      -5.81459580       8.80666380
O        5.67240769      -4.38320220       5.40481920
O       14.79790269      -0.02379780      10.13818080
O       12.57858231       0.02379780      17.90968080
O        3.45308731      -4.43079780       7.99531920
O       12.57858231      -4.43079780      10.13818080
O        3.45308731       0.02379780      15.76681920
O        5.67240769      -0.02379780       7.99531920
O       14.79790269      -4.38320220       7.54768080
O        7.89720337      -4.55419380       8.75381760
O       17.02269837       0.14719380      17.15118240
O       10.35378663      -0.14719380       9.37968240
O        1.22829163      -4.25980620       6.16331760
O       10.35378663      -4.25980620       6.78918240
O        1.22829163      -0.14719380       8.75381760
O        7.89720337       0.14719380      16.52531760
O       17.02269837      -4.55419380       9.37968240
O        5.53370017      -6.85200360       9.49211010
O       14.65919517       2.44500360      16.41288990
O       12.71728983      -2.44500360       8.64138990
O        3.59179483      -1.96199640       6.90161010
O       12.71728983      -1.96199640       6.05088990
O        3.59179483      -2.44500360       9.49211010
O        5.53370017       2.44500360      17.26361010
O       14.65919517      -6.85200360       8.64138990
O        8.16731803       1.72313700      18.67232400
O       17.29281303      -6.13013700       7.23267600
O       10.08367198      -2.68386300       9.82317600
O        0.95817698      -1.72313700       5.71982400
O       10.08367198      -1.72313700       7.23267600
O        0.95817698      -2.68386300       8.31032400
O        8.16731803       2.68386300      16.08182400
O       17.29281303      -7.09086300       9.82317600
Fe       6.85872204      -3.05228820       4.48674600
Fe      15.98421704       7.45928820      11.05625400
Mg      11.39226796       1.35471180      13.64675400
Fe       2.26677296       3.05228820      12.25824600
Fe      11.39226796       3.05228820      11.05625400
Fe       2.26677296       1.35471180      14.84874600
Fe       6.85872204      -1.35471180       1.89624600
Fe      15.98421704       5.76171180      13.64675400
Fe       6.87697303       4.29153660      12.22197900
Fe      16.00246803       0.11546340      13.68302100
Fe      11.37401697      -0.11546340       0.73052100
Fe       2.24852197       4.52246340      14.81247900
Fe      11.37401697       4.52246340      13.68302100
Fe       2.24852197      -0.11546340       1.85997900
Fe       6.87697303       0.11546340      14.81247900
Fe      16.00246803       4.29153660      11.09252100
Si       4.95879398       3.00998100      10.62364050
Si      14.08428898       1.39701900      15.28135950
Si      13.29219602      -1.39701900       2.32885950
Si       4.16670102       5.80401900      13.21414050
Si      13.29219602      -3.00998100       4.91935950
Si       4.16670102       7.41698100      10.62364050
Si       4.95879398       1.39701900      13.21414050
Si      14.08428898       3.00998100      12.69085950
Si       8.64184377       2.97384360      14.49799230
Si      17.76733877       1.43315640      11.40700770
Si       9.60914624      -1.43315640       3.63550770
Si       0.48365124       5.84015640      11.90749230
Si       9.60914624       5.84015640      11.40700770
Si       0.48365124      -1.43315640       4.13599230
Si       8.64184377       1.43315640      11.90749230
Si      17.76733877       2.97384360      13.99750770
O        3.34723157       2.99676000      10.54644360
O       12.47272657       1.41024000      15.35855640
O       14.90375843      -1.41024000       2.40605640
O        5.77826343       5.81724000      13.13694360
O       14.90375843      -2.99676000       4.99655640
O        5.77826343       7.40376000      10.54644360
O        3.34723157       1.41024000      13.13694360
O       12.47272657       2.99676000      12.76805640
O       10.26618188       2.99940420      14.50783620
O        1.14068688       1.40759580      11.39716380
O        7.98480813      -1.40759580       3.62566380
O       17.11030313       5.81459580      11.91733620
O        7.98480813       5.81459580      11.39716380
O       17.11030313      -1.40759580       4.14583620
O       10.26618188       1.40759580      11.91733620
O        1.14068688       2.99940420      13.98766380
O        5.67240769       4.43079780      10.58581920
O       14.79790269      -0.02379780       4.95718080
O       12.57858231       0.02379780      12.72868080
O        3.45308731       4.38320220      13.17631920
O       12.57858231       4.38320220      15.31918080
O        3.45308731       0.02379780      10.58581920
O        5.67240769      -0.02379780       2.81431920
O       14.79790269       4.43079780      12.72868080
O        7.89720337       4.25980620      13.93481760
O       17.02269837       0.14719380      11.97018240
O       10.35378663      -0.14719380       4.19868240
O        1.22829163       4.55419380      11.34431760
O       10.35378663       4.55419380      11.97018240
O        1.22829163      -0.14719380       3.57281760
O        7.89720337       0.14719380      11.34431760
O       17.02269837       4.25980620      14.56068240
O        5.53370017       1.96199640      14.67311010
O       14.65919517       2.44500360      11.23188990
O       12.71728983      -2.44500360       3.46038990
O        3.59179483       6.85200360      12.08261010
O       12.71728983       6.85200360      11.23188990
O        3.59179483      -2.44500360       4.31111010
O        5.53370017       2.44500360      12.08261010
O       14.65919517       1.96199640      13.82238990
O        8.16731803       1.72313700      13.49132400
O       17.29281303       2.68386300      12.41367600
O       10.08367198      -2.68386300       4.64217600
O        0.95817698       7.09086300      10.90082400
O       10.08367198      -1.72313700       2.05167600
O        0.95817698       6.13013700      13.49132400
O        8.16731803       2.68386300      10.90082400
O       17.29281303       1.72313700      15.00417600
Mg       6.85872204       5.76171180       9.66774600
Fe      15.98421704      -1.35471180      16.23725400
Fe      11.39226796       1.35471180       8.46575400
Fe       2.26677296       3.05228820       7.07724600
Fe      11.39226796       3.05228820       5.87525400
Fe       2.26677296       1.35471180       9.66774600
Fe       6.85872204      -1.35471180      17.43924600
Fe      15.98421704       5.76171180       8.46575400
Fe       6.87697303       4.29153660       7.04097900
Fe      16.00246803       0.11546340       8.50202100
Fe      11.37401697      -0.11546340      16.27352100
Mg       2.24852197       4.52246340       9.63147900
Fe      11.37401697       4.52246340       8.50202100
Fe       2.24852197      -0.11546340      17.40297900
Mg       6.87697303       0.11546340       9.63147900
Mg      16.00246803       4.29153660       5.91152100
Si       4.95879398       3.00998100       5.44264050
Si      14.08428898       1.39701900      10.10035950
Si      13.29219602      -1.39701900      17.87185950
Si       4.16670102       5.80401900       8.03314050
Si      13.29219602       5.80401900      10.10035950
Si       4.16670102      -1.39701900      15.80464050
Si       4.95879398       1.39701900       8.03314050
Si      14.08428898       3.00998100       7.50985950
Si       8.64184377       2.97384360       9.31699230
Si      17.76733877       1.43315640       6.22600770
Si       9.60914624       7.38084360       8.81650770
Si       0.48365124      -2.97384360      17.08849230
Si       9.60914624      -2.97384360      16.58800770
Si       0.48365124       7.38084360       9.31699230
Si       8.64184377       1.43315640       6.72649230
Si      17.76733877       2.97384360       8.81650770
O        3.34723157       2.99676000       5.36544360
O       12.47272657       1.41024000      10.17755640
O       14.90375843      -1.41024000      17.94905640
O        5.77826343       5.81724000       7.95594360
O       14.90375843       5.81724000      10.17755640
O        5.77826343      -1.41024000      15.72744360
O        3.34723157       1.41024000       7.95594360
O       12.47272657       2.99676000       7.58705640
O       10.26618188       2.99940420       9.32683620
O        1.14068688       1.40759580       6.21616380
O        7.98480813       7.40640420       8.80666380
O       17.11030313      -2.99940420      17.09833620
O        7.98480813      -2.99940420      16.57816380
O       17.11030313       7.40640420       9.32683620
O       10.26618188       1.40759580       6.73633620
O        1.14068688       2.99940420       8.80666380
O        5.67240769       4.43079780       5.40481920
O       14.79790269      -0.02379780      20.50018080
O       12.57858231       0.02379780       7.54768080
O        3.45308731       4.38320220       7.99531920
O       12.57858231       4.38320220      10.13818080
O        3.45308731       0.02379780       5.40481920
O        5.67240769      -0.02379780      18.35731920
O       14.79790269       4.43079780       7.54768080
O        7.89720337       4.25980620       8.75381760
O       17.02269837       0.14719380       6.78918240
O       10.35378663      -0.14719380      19.74168240
O        1.22829163       4.55419380       6.16331760
O       10.35378663       4.55419380       6.78918240
O        1.22829163      -0.14719380      19.11581760
O        7.89720337       0.14719380       6.16331760
O       17.02269837       4.25980620       9.37968240
O        5.53370017       1.96199640       9.49211010
O       14.65919517       2.44500360       6.05088990
O       12.71728983       6.36899640       8.64138990
O        3.59179483      -1.96199640      17.26361010
O       12.71728983      -1.96199640      16.41288990
O        3.59179483       6.36899640       9.49211010
O        5.53370017       2.44500360       6.90161010
O       14.65919517       1.96199640       8.64138990
O        8.16731803       1.72313700       8.31032400
O       17.29281303       2.68386300       7.23267600
O       10.08367198       6.13013700       9.82317600
O        0.95817698      -1.72313700      16.08182400
O       10.08367198      -1.72313700      17.59467600
O        0.95817698       6.13013700       8.31032400
O        8.16731803       2.68386300       5.71982400
O       17.29281303       1.72313700       9.82317600
