80
Lattice="18.25099 0.0 0.0 0.0 8.814 0.0 0.0 8.814 5.181000000000001" Properties=species:S:1:pos:R:3 pbc="T T T"
Fe       6.85872204      14.57571180       4.48674600
Fe      15.98421704       7.45928820       0.69425400
Fe      11.39226796      10.16871180       3.28475400
Fe       2.26677296      11.86628820       1.89624600
Fe      11.39226796       3.05228820       0.69425400
Mg       2.26677296      10.16871180       4.48674600
Fe       6.85872204       7.45928820       1.89624600
Mg      15.98421704       5.76171180       3.28475400
Mg       6.87697303       4.29153660       1.85997900
Mg      16.00246803       8.92946340       3.32102100
Fe      11.37401697       8.69853660       0.73052100
Fe       2.24852197      13.33646340       4.45047900
Fe      11.37401697      13.33646340       3.32102100
Fe       2.24852197       8.69853660       1.85997900
Fe       6.87697303       8.92946340       4.45047900
Fe      16.00246803       4.29153660       0.73052100
Si       4.95879398       3.00998100       0.26164050
Si      14.08428898      10.21101900       4.91935950
Si      13.29219602       7.41698100       2.32885950
Si       4.16670102       5.80401900       2.85214050
Si      13.29219602      14.61801900       4.91935950
Si       4.16670102       7.41698100       0.26164050
Si       4.95879398      10.21101900       2.85214050
Si      14.08428898      11.82398100       2.32885950
Si       8.64184377      11.78784360       4.13599230
Si      17.76733877      10.24715640       1.04500770
Si       9.60914624       7.38084360       3.63550770
Si       0.48365124       5.84015640       1.54549230
Si       9.60914624       5.84015640       1.04500770
Si       0.48365124       7.38084360       4.13599230
Si       8.64184377      10.24715640       1.54549230
Si      17.76733877      11.78784360       3.63550770
O        3.34723157       2.99676000       0.18444360
O       12.47272657      10.22424000       4.99655640
O       14.90375843       7.40376000       2.40605640
O        5.77826343       5.81724000       2.77494360
O       14.90375843      14.63124000       4.99655640
O        5.77826343       7.40376000       0.18444360
O        3.34723157      10.22424000       2.77494360
O       12.47272657      11.81076000       2.40605640
O       10.26618188      11.81340420       4.14583620
O        1.14068688      10.22159580       1.03516380
O        7.98480813       7.40640420       3.62566380
O       17.11030313       5.81459580       1.55533620
O        7.98480813       5.81459580       1.03516380
O       17.11030313       7.40640420       4.14583620
O       10.26618188      10.22159580       1.55533620
O        1.14068688      11.81340420       3.62566380
O        5.67240769       4.43079780       0.22381920
O       14.79790269       8.79020220       4.95718080
O       12.57858231       8.83779780       2.36668080
O        3.45308731      13.19720220       2.81431920
O       12.57858231      13.19720220       4.95718080
O        3.45308731       8.83779780       0.22381920
O        5.67240769       8.79020220       2.81431920
O       14.79790269       4.43079780       2.36668080
O        7.89720337      13.07380620       3.57281760
O       17.02269837       8.96119380       1.60818240
O       10.35378663       8.66680620       4.19868240
O        1.22829163       4.55419380       0.98231760
O       10.35378663       4.55419380       1.60818240
O        1.22829163       8.66680620       3.57281760
O        7.89720337       8.96119380       0.98231760
O       17.02269837      13.07380620       4.19868240
O        5.53370017      10.77599640       4.31111010
O       14.65919517       2.44500360       0.86988990
O       12.71728983       6.36899640       3.46038990
O        3.59179483       6.85200360       1.72061010
O       12.71728983       6.85200360       0.86988990
O        3.59179483      15.18299640       4.31111010
O        5.53370017      11.25900360       1.72061010
O       14.65919517      10.77599640       3.46038990
O        8.16731803      10.53713700       3.12932400
O       17.29281303      11.49786300       2.05167600
O       10.08367198      14.94413700       4.64217600
O        0.95817698       7.09086300       0.53882400
O       10.08367198       7.09086300       2.05167600
O        0.95817698       6.13013700       3.12932400
O        8.16731803       2.68386300       0.53882400
O       17.29281303      10.53713700       4.64217600
