160
Lattice="18.25099 0.0 0.0 0.0 8.814 5.181000000000001 0.0 0.0 10.362000000000002" Properties=species:S:1:pos:R:3 pbc="T T T"
Mg       6.85872204       5.76171180       9.66774600
Mg      15.98421704       7.45928820       5.87525400
Fe      11.39226796       1.35471180       8.46575400
Fe       2.26677296       3.05228820       7.07724600
Fe      11.39226796       3.05228820       5.87525400
Mg       2.26677296       1.35471180       9.66774600
Mg       6.85872204       7.45928820       7.07724600
Mg      15.98421704       5.76171180       8.46575400
Fe       6.87697303       4.29153660       7.04097900
Mg      16.00246803       0.11546340       8.50202100
Fe      11.37401697       8.69853660       5.91152100
Mg       2.24852197       4.52246340       9.63147900
Mg      11.37401697       4.52246340       8.50202100
Mg       2.24852197       8.69853660       7.04097900
Mg       6.87697303       0.11546340       9.63147900
Mg      16.00246803       4.29153660       5.91152100
Si       4.95879398       3.00998100       5.44264050
Si      14.08428898       1.39701900      10.10035950
Si      13.29219602       7.41698100       7.50985950
Si       4.16670102       5.80401900       8.03314050
Si      13.29219602       5.80401900      10.10035950
Si       4.16670102       7.41698100       5.44264050
Si       4.95879398       1.39701900       8.03314050
Si      14.08428898       3.00998100       7.50985950
Si       8.64184377       2.97384360       9.31699230
Si      17.76733877       1.43315640       6.22600770
Si       9.60914624       7.38084360       8.81650770
Si       0.48365124       5.84015640       6.72649230
Si       9.60914624       5.84015640       6.22600770
Si       0.48365124       7.38084360       9.31699230
Si       8.64184377       1.43315640       6.72649230
Si      17.76733877       2.97384360       8.81650770
O        3.34723157       2.99676000       5.36544360
O       12.47272657       1.41024000      10.17755640
O       14.90375843       7.40376000       7.58705640
O        5.77826343       5.81724000       7.95594360
O       14.90375843       5.81724000      10.17755640
O        5.77826343       7.40376000       5.36544360
O        3.34723157       1.41024000       7.95594360
O       12.47272657       2.99676000       7.58705640
O       10.26618188       2.99940420       9.32683620
O        1.14068688       1.40759580       6.21616380
O        7.98480813       7.40640420       8.80666380
O       17.11030313       5.81459580       6.73633620
O        7.98480813       5.81459580       6.21616380
O       17.11030313       7.40640420       9.32683620
O       10.26618188       1.40759580       6.73633620
O        1.14068688       2.99940420       8.80666380
O        5.67240769       4.43079780       5.40481920
O       14.79790269       8.79020220      10.13818080
O       12.57858231       0.02379780       7.54768080
O        3.45308731       4.38320220       7.99531920
O       12.57858231       4.38320220      10.13818080
O        3.45308731       0.02379780       5.40481920
O        5.67240769       8.79020220       7.99531920
O       14.79790269       4.43079780       7.54768080
O        7.89720337       4.25980620       8.75381760
O       17.02269837       0.14719380       6.78918240
O       10.35378663       8.66680620       9.37968240
O        1.22829163       4.55419380       6.16331760
O       10.35378663       4.55419380       6.78918240
O        1.22829163       8.66680620       8.75381760
O        7.89720337       0.14719380       6.16331760
O       17.02269837       4.25980620       9.37968240
O        5.53370017       1.96199640       9.49211010
O       14.65919517       2.44500360       6.05088990
O       12.71728983       6.36899640       8.64138990
O        3.59179483       6.85200360       6.90161010
O       12.71728983       6.85200360       6.05088990
O        3.59179483       6.36899640       9.49211010
O        5.53370017       2.44500360       6.90161010
O       14.65919517       1.96199640       8.64138990
O        8.16731803       1.72313700       8.31032400
O       17.29281303       2.68386300       7.23267600
O       10.08367198       6.13013700       9.82317600
O        0.95817698       7.09086300       5.71982400
O       10.08367198       7.09086300       7.23267600
O        0.95817698       6.13013700       8.31032400
O        8.16731803       2.68386300       5.71982400
O       17.29281303       1.72313700       9.82317600
Mg       6.85872204       5.76171180       4.48674600
Fe      15.98421704       7.45928820      11.05625400
Mg      11.39226796       1.35471180       3.28475400
Mg       2.26677296       3.05228820       1.89624600
Mg      11.39226796       3.05228820      11.05625400
Mg       2.26677296       1.35471180       4.48674600
Mg       6.85872204       7.45928820      12.25824600
Mg      15.98421704       5.76171180      13.64675400
Mg       6.87697303       4.29153660      12.22197900
Fe      16.00246803       0.11546340       3.32102100
Mg      11.37401697       8.69853660      11.09252100
Mg       2.24852197       4.52246340       4.45047900
Mg      11.37401697       4.52246340       3.32102100
Mg       2.24852197       8.69853660      12.22197900
Mg       6.87697303       0.11546340       4.45047900
Fe      16.00246803       4.29153660      11.09252100
Si       4.95879398       3.00998100      10.62364050
Si      14.08428898       1.39701900       4.91935950
Si      13.29219602       7.41698100      12.69085950
Si       4.16670102       5.80401900      13.21414050
Si      13.29219602       5.80401900       4.91935950
Si       4.16670102       7.41698100      10.62364050
Si       4.95879398       1.39701900       2.85214050
Si      14.08428898       3.00998100       2.32885950
Si       8.64184377       2.97384360       4.13599230
Si      17.76733877       1.43315640       1.04500770
Si       9.60914624       7.38084360      13.99750770
Si       0.48365124       5.84015640      11.90749230
Si       9.60914624       5.84015640      11.40700770
Si       0.48365124       7.38084360      14.49799230
Si       8.64184377       1.43315640       1.54549230
Si      17.76733877       2.97384360       3.63550770
O        3.34723157       2.99676000      10.54644360
O       12.47272657       1.41024000       4.99655640
O       14.90375843       7.40376000      12.76805640
O        5.77826343       5.81724000      13.13694360
O       14.90375843       5.81724000       4.99655640
O        5.77826343       7.40376000      10.54644360
O        3.34723157       1.41024000       2.77494360
O       12.47272657       2.99676000       2.40605640
O       10.26618188       2.99940420       4.14583620
O        1.14068688       1.40759580       1.03516380
O        7.98480813       7.40640420      13.98766380
O       17.11030313       5.81459580      11.91733620
O        7.98480813       5.81459580      11.39716380
O       17.11030313       7.40640420      14.50783620
O       10.26618188       1.40759580       1.55533620
O        1.14068688       2.99940420       3.62566380
O        5.67240769       4.43079780      10.58581920
O       14.79790269       8.79020220      15.31918080
O       12.57858231       0.02379780       2.36668080
O        3.45308731       4.38320220       2.81431920
O       12.57858231       4.38320220       4.95718080
O        3.45308731       0.02379780       0.22381920
O        5.67240769       8.79020220      13.17631920
O       14.79790269       4.43079780      12.72868080
O        7.89720337       4.25980620       3.57281760
O       17.02269837       0.14719380       1.60818240
O       10.35378663       8.66680620      14.56068240
O        1.22829163       4.55419380      11.34431760
O       10.35378663       4.55419380      11.97018240
O        1.22829163       8.66680620      13.93481760
O        7.89720337       0.14719380       0.98231760
O       17.02269837       4.25980620       4.19868240
O        5.53370017       1.96199640       4.31111010
O       14.65919517       2.44500360      11.23188990
O       12.71728983       6.36899640      13.82238990
O        3.59179483       6.85200360      12.08261010
O       12.71728983       6.85200360      11.23188990
O        3.59179483       6.36899640       4.31111010
O        5.53370017       2.44500360       1.72061010
O       14.65919517       1.96199640       3.46038990
O        8.16731803       1.72313700       3.12932400
O       17.29281303       2.68386300       2.05167600
O       10.08367198       6.13013700       4.64217600
O        0.95817698       7.09086300      10.90082400
O       10.08367198       7.09086300      12.41367600
O        0.95817698       6.13013700      13.49132400
O        8.16731803       2.68386300      10.90082400
O       17.29281303       1.72313700       4.64217600
