112
Lattice="8.05 0.0 -8.05 -4.025 8.05 -4.025 4.025 4.025 8.05" Properties=species:S:1:pos:R:3 pbc="T T T"
Fe       4.02500000       4.02500000      -8.05000000
Fe       6.03750000       6.03750000      -6.03750000
Al       9.05625000       9.05625000      -3.01875000
Al       1.00625000       7.04375000       3.01875000
Al       7.04375000       9.05625000      -5.03125000
Al       7.04375000       7.04375000      -3.01875000
O        7.04375000       7.04375000      -5.03125000
O        7.04375000       9.05625000      -3.01875000
O        9.05625000       7.04375000      -3.01875000
O        1.00625000       9.05625000       3.01875000
O       -1.00625000       7.04375000      -1.00625000
O       -1.00625000       5.03125000      -3.01875000
O       -3.01875000       7.04375000      -3.01875000
O        5.03125000       5.03125000      -9.05625000
Mg       4.02500000       0.00000000      -4.02500000
Mg       6.03750000       2.01250000      -2.01250000
Al       9.05625000       5.03125000       1.00625000
Al       9.05625000       3.01875000      -1.00625000
Al       7.04375000       5.03125000      -1.00625000
Al       7.04375000       3.01875000       1.00625000
O        7.04375000       3.01875000      -1.00625000
O        7.04375000       5.03125000       1.00625000
O        5.03125000      11.06875000      -3.01875000
O        9.05625000       5.03125000      -1.00625000
O        7.04375000       3.01875000      -5.03125000
O        7.04375000       1.00625000      -7.04375000
O        5.03125000       3.01875000      -7.04375000
O        5.03125000       1.00625000      -5.03125000
Fe       8.05000000       4.02500000      -4.02500000
Fe      10.06250000       6.03750000      -2.01250000
Al       1.00625000       5.03125000       1.00625000
Al       1.00625000       3.01875000      -1.00625000
Al      -1.00625000       5.03125000      -1.00625000
Al       7.04375000       3.01875000      -7.04375000
O       -1.00625000       3.01875000      -1.00625000
O        7.04375000       5.03125000      -7.04375000
O        1.00625000       3.01875000       1.00625000
O        1.00625000       5.03125000      -1.00625000
O        3.01875000       7.04375000       3.01875000
O        3.01875000       5.03125000       1.00625000
O        1.00625000       7.04375000       1.00625000
O        1.00625000       5.03125000       3.01875000
Mg       0.00000000       4.02500000      -4.02500000
Fe       2.01250000       6.03750000      -2.01250000
Al       5.03125000       9.05625000       1.00625000
Al       5.03125000       7.04375000      -1.00625000
Al       3.01875000       9.05625000      -1.00625000
Al       3.01875000       7.04375000       1.00625000
O        3.01875000       7.04375000      -1.00625000
O        3.01875000       9.05625000       1.00625000
O        5.03125000       7.04375000       1.00625000
O        5.03125000       9.05625000      -1.00625000
O        3.01875000       7.04375000      -5.03125000
O        3.01875000       5.03125000      -7.04375000
O        1.00625000       7.04375000      -7.04375000
O        1.00625000       5.03125000      -5.03125000
Mg       4.02500000       8.05000000      -4.02500000
Mg       6.03750000      10.06250000      -2.01250000
Al       5.03125000       9.05625000      -7.04375000
Al       5.03125000       7.04375000      -9.05625000
Al       7.04375000       1.00625000      -5.03125000
Al       3.01875000       7.04375000      -7.04375000
O        3.01875000       7.04375000      -9.05625000
O        3.01875000       9.05625000      -7.04375000
O        5.03125000       7.04375000      -7.04375000
O        5.03125000       9.05625000      -9.05625000
O        7.04375000      11.06875000      -5.03125000
O       -1.00625000       9.05625000       1.00625000
O        9.05625000       3.01875000      -3.01875000
O        5.03125000       9.05625000      -5.03125000
Fe       0.00000000       0.00000000       0.00000000
Mg       2.01250000       2.01250000       2.01250000
Al       5.03125000       5.03125000       5.03125000
Al       5.03125000       3.01875000       3.01875000
Al       3.01875000       5.03125000       3.01875000
Al       3.01875000       3.01875000       5.03125000
O        3.01875000       3.01875000       3.01875000
O        3.01875000       5.03125000       5.03125000
O        1.00625000      11.06875000       1.00625000
O        5.03125000       5.03125000       3.01875000
O        3.01875000       3.01875000      -1.00625000
O        3.01875000       1.00625000      -3.01875000
O        1.00625000       3.01875000      -3.01875000
O        1.00625000       1.00625000      -1.00625000
Mg       4.02500000       4.02500000      -0.00000000
Fe       6.03750000       6.03750000       2.01250000
Al       5.03125000       5.03125000      -3.01875000
Al       5.03125000       3.01875000      -5.03125000
Al       3.01875000       5.03125000      -5.03125000
Al       3.01875000       3.01875000      -3.01875000
O        3.01875000       3.01875000      -5.03125000
O        3.01875000       5.03125000      -3.01875000
O        5.03125000       3.01875000      -3.01875000
O        5.03125000       5.03125000      -5.03125000
O        7.04375000       7.04375000      -1.00625000
O        7.04375000       5.03125000      -3.01875000
O        5.03125000       7.04375000      -3.01875000
O        5.03125000       5.03125000      -1.00625000
Fe      -0.00000000       8.05000000      -0.00000000
Mg       2.01250000      10.06250000       2.01250000
Al       1.00625000       9.05625000      -3.01875000
Al       1.00625000       7.04375000      -5.03125000
Al       3.01875000       1.00625000      -1.00625000
Al      -1.00625000       7.04375000      -3.01875000
O       -1.00625000       7.04375000      -5.03125000
O       -1.00625000       9.05625000      -3.01875000
O        1.00625000       7.04375000      -3.01875000
O        1.00625000       9.05625000      -5.03125000
O        3.01875000      11.06875000      -1.00625000
O        3.01875000       9.05625000      -3.01875000
O        5.03125000       3.01875000       1.00625000
O        1.00625000       9.05625000      -1.00625000
