28
Lattice="4.7542 0.0 0.0 0.0 0.0 5.9839 0.0 -10.2048 0.0" Properties=species:S:1:pos:R:3 pbc="T T T"
Fe       0.00000000       0.00000000       0.00000000
Fe       2.37710000      -5.10240000       0.00000000
Mg       0.00000000       0.00000000       2.99195000
Fe       2.37710000      -5.10240000       2.99195000
Fe       0.06988674      -7.38011136       4.48792500
Fe       4.68431326      -2.82468864       1.49597500
Fe       2.44698674      -7.92708864       1.49597500
Mg       2.30721326      -2.27771136       4.48792500
Si       0.33326942      -6.11267520       1.49597500
Si       4.42093058      -4.09212480       4.48792500
Si       2.71036942      -9.19452480       4.48792500
Si       2.04383058      -1.01027520       1.49597500
O        1.17000862      -9.33331008       4.48792500
O        3.58419138      -0.87148992       1.49597500
O        3.54710862      -5.97388992       1.49597500
O        1.20709138      -4.23091008       4.48792500
O        1.33545478      -9.70680576       1.49597500
O        3.41874522      -0.49799424       4.48792500
O        3.71255478      -5.60039424       4.48792500
O        1.04164522      -4.60440576       1.49597500
O        1.05638324      -6.67495968       2.65685160
O        3.69781676      -3.52984032       3.32704840
O        3.43348324      -8.63224032       3.32704840
O        1.32071676      -1.57255968       2.65685160
O        3.69781676      -3.52984032       5.64880160
O        1.05638324      -6.67495968       0.33509840
O        1.32071676      -1.57255968       0.33509840
O        3.43348324      -8.63224032       5.64880160
