112
Lattice="-4.7542 0.0 -5.9839 -4.7542 -10.2048 5.9839 -4.7542 10.2048 5.9839" Properties=species:S:1:pos:R:3 pbc="T T T"
Fe      -4.75420000       0.00000000       5.98390000
Fe      -7.13130000       5.10240000       5.98390000
Fe      -4.75420000      -0.00000000       2.99195000
Fe      -7.13130000       5.10240000       2.99195000
Fe      -9.43851326       2.82468864       4.48792500
Fe      -9.57828674      -2.82468864       7.47987500
Fe      -7.06141326       2.27771136       1.49597500
Mg      -7.20118674       7.92708864       4.48792500
Si      -9.17513058       4.09212480       1.49597500
Si      -5.08746942       6.11267520       4.48792500
Si      -6.79803058       1.01027520       4.48792500
Si      -7.46456942       9.19452480       1.49597500
O       -8.33839138       0.87148992       4.48792500
O      -10.67840862      -0.87148992       7.47987500
O       -5.96129138       4.23091008       1.49597500
O       -8.30130862       5.97388992       4.48792500
O       -8.17294522       0.49799424       1.49597500
O       -6.08965478       9.70680576       4.48792500
O       -5.79584522       4.60440576       4.48792500
O       -8.46675478       5.60039424       1.49597500
O       -8.45201676       3.52984032       2.65685160
O       -5.81058324       6.67495968       3.32704840
O       -6.07491676       1.57255968       3.32704840
O       -8.18768324       8.63224032       2.65685160
O       -5.81058324       6.67495968       5.64880160
O       -8.45201676       3.52984032       0.33509840
O       -8.18768324       8.63224032       0.33509840
O       -6.07491676       1.57255968       5.64880160
Fe      -9.50840000      -0.00000000       5.98390000
Mg      -7.13130000      -5.10240000       0.00000000
Fe      -9.50840000      -0.00000000       2.99195000
Fe      -2.37710000      -5.10240000       2.99195000
Mg      -4.68431326      -7.38011136       4.48792500
Fe      -9.57828674       7.38011136       1.49597500
Fe      -7.06141326       2.27771136       7.47987500
Mg      -7.20118674      -2.27771136      -1.49597500
Si      -9.17513058       4.09212480       7.47987500
Si      -5.08746942      -4.09212480      -1.49597500
Si     -11.55223058       1.01027520       4.48792500
Si      -2.71036942      -1.01027520       1.49597500
O       -8.33839138       0.87148992      10.47182500
O       -5.92420862      -0.87148992      -4.48792500
O       -5.96129138       4.23091008       7.47987500
O       -8.30130862      -4.23091008      -1.49597500
O       -8.17294522       0.49799424       7.47987500
O       -6.08965478      -0.49799424      -1.49597500
O      -10.55004522       4.60440576       4.48792500
O       -3.71255478      -4.60440576       1.49597500
O       -8.45201676       3.52984032       8.64075160
O       -5.81058324      -3.52984032      -2.65685160
O      -10.82911676       1.57255968       3.32704840
O       -3.43348324      -1.57255968       2.65685160
O       -5.81058324      -3.52984032      -0.33509840
O       -8.45201676       3.52984032       6.31899840
O       -3.43348324      -1.57255968       0.33509840
O      -10.82911676       1.57255968       5.64880160
Fe       0.00000000       0.00000000       0.00000000
Fe      -7.13130000      -5.10240000       5.98390000
Fe      -9.50840000       0.00000000       8.97585000
Mg      -7.13130000      -5.10240000       2.99195000
Fe      -4.68431326       2.82468864      -1.49597500
Fe      -4.82408674      -2.82468864       1.49597500
Mg      -7.06141326      -7.92708864       1.49597500
Fe      -7.20118674      -2.27771136       4.48792500
Si      -9.17513058      -6.11267520       1.49597500
Si      -5.08746942      -4.09212480       4.48792500
Si      -6.79803058      -9.19452480       4.48792500
Si      -7.46456942      -1.01027520       1.49597500
O       -3.58419138       0.87148992      -1.49597500
O       -5.92420862      -0.87148992       1.49597500
O       -5.96129138      -5.97388992       1.49597500
O       -8.30130862      -4.23091008       4.48792500
O       -8.17294522      -9.70680576       1.49597500
O       -6.08965478      -0.49799424       4.48792500
O       -5.79584522      -5.60039424       4.48792500
O       -8.46675478      -4.60440576       1.49597500
O       -8.45201676      -6.67495968       2.65685160
O       -5.81058324      -3.52984032       3.32704840
O       -6.07491676      -8.63224032       3.32704840
O       -8.18768324      -1.57255968       2.65685160
O       -5.81058324      -3.52984032       5.64880160
O       -8.45201676      -6.67495968       0.33509840
O       -8.18768324      -1.57255968       0.33509840
O       -6.07491676      -8.63224032       5.64880160
Mg      -4.75420000       0.00000000       0.00000000
Fe      -7.13130000       5.10240000       0.00000000
Fe      -4.75420000       0.00000000      -2.99195000
Mg      -2.37710000       5.10240000       2.99195000
Fe      -4.68431326       2.82468864       4.48792500
Fe      -9.57828674      -2.82468864       1.49597500
Fe      -2.30721326       2.27771136       1.49597500
Fe     -11.95538674      -2.27771136       4.48792500
Si      -4.42093058       4.09212480       1.49597500
Si      -9.84166942      -4.09212480       4.48792500
Si      -6.79803058       1.01027520      -1.49597500
Si      -7.46456942      -1.01027520       7.47987500
O       -3.58419138       0.87148992       4.48792500
O      -10.67840862      -0.87148992       1.49597500
O       -5.96129138      -5.97388992       7.47987500
O       -8.30130862       5.97388992      -1.49597500
O       -3.41874522       0.49799424       1.49597500
O      -10.84385478      -0.49799424       4.48792500
O       -5.79584522       4.60440576      -1.49597500
O       -8.46675478      -4.60440576       7.47987500
O       -3.69781676       3.52984032       2.65685160
O      -10.56478324      -3.52984032       3.32704840
O       -6.07491676       1.57255968      -2.65685160
O       -8.18768324      -1.57255968       8.64075160
O      -10.56478324      -3.52984032       5.64880160
O       -3.69781676       3.52984032       0.33509840
O       -8.18768324      -1.57255968       6.31899840
O       -6.07491676       1.57255968      -0.33509840
